8808
Lattice="60.0 0.0 0.0 0.0 60.0 0.0 0.0 0.0 80.0" Properties=species:S:1:pos:R:3:spacegroup_kinds:I:1 spacegroup="P 21" unit_cell=conventional occupancy="_JSON {\"0\": {\"C\": 1}, \"1\": {\"H\": 1}, \"2\": {\"C\": 1}, \"3\": {\"H\": 1}, \"4\": {\"C\": 1}, \"5\": {\"H\": 1}, \"6\": {\"C\": 1}, \"7\": {\"H\": 1}, \"8\": {\"C\": 1}, \"9\": {\"H\": 1}, \"10\": {\"C\": 1}, \"11\": {\"H\": 1}, \"12\": {\"H\": 1}, \"13\": {\"O\": 1}, \"14\": {\"O\": 1}, \"15\": {\"O\": 1}, \"16\": {\"O\": 1}, \"17\": {\"O\": 1}, \"18\": {\"C\": 1}, \"19\": {\"H\": 1}, \"20\": {\"C\": 1}, \"21\": {\"H\": 1}, \"22\": {\"C\": 1}, \"23\": {\"H\": 1}, \"24\": {\"C\": 1}, \"25\": {\"H\": 1}, \"26\": {\"C\": 1}, \"27\": {\"H\": 1}, \"28\": {\"C\": 1}, \"29\": {\"H\": 1}, \"30\": {\"H\": 1}, \"31\": {\"O\": 1}, \"32\": {\"O\": 1}, \"33\": {\"O\": 1}, \"34\": {\"O\": 1}, \"35\": {\"O\": 1}}" pbc="T T T"
C       22.36426658      21.65780628       9.14527827        0
C       30.78722334      14.19472420      14.33527827        0
H       23.30933601      21.84682757       9.31654827        1
H       29.84215391      14.00570291      14.50654827        1
C       29.96974615      20.50086561      18.54021627        2
C       23.18174377      15.35166487      13.35021627        2
H       29.02982896      20.22629589      18.50907627        3
H       24.12166096      15.62623459      13.31907627        3
C       22.65552212      20.88379668      17.15760027        4
C       30.49596780      14.96873380      11.96760027        4
H       23.63735812      20.92208978      17.16590427        5
H       29.51413180      14.93044070      11.97590427        5
C       30.85293722      14.09695456      16.74032427        6
C       22.29855270      21.75557591      11.55032427        6
H       29.89465090      13.99592594      16.55867427        7
H       23.25683902      21.85660454      11.36867427        7
C       23.20513102      15.14797813      17.79700827        8
C       29.94635890      20.70455235      12.60700827        8
H       24.15418601      15.33618468      17.94440427        9
H       28.99730391      20.51634580      12.75440427        9
C       30.27122064      16.45157326      17.48768427       10
C       22.88026928      19.40095722      12.29768427       10
H       29.35719365      16.26336671      17.23026027       11
H       23.79429627      19.58916377      12.04026027       11
H       30.25645942      17.00723068      18.28175427       12
H       22.89503050      18.84529980      13.09175427       12
O       22.98456783      19.44169457      19.07271027       13
O       30.16692209      16.41083591      13.88271027       13
O       30.03399487      19.87351045      16.21198227       14
O       23.11749505      15.97902002      11.02198227       14
O       23.68597379      14.55321286      15.52171227       15
O       29.46551613      21.29931762      10.33171227       15
O       30.40697242      14.65912996      19.02081027       16
O       22.74451750      21.19340052      13.83081027       16
O       23.14811948      17.13596070      16.43930427       17
O       30.00337044      18.71656978      11.24930427       17
C       26.87471401      17.55962911      11.85445827       18
C       26.27677591      18.29290137      17.04445827       18
H       27.83920457      17.61340241      12.01742427       19
H       25.31228535      18.23912807      17.20742427       19
C       26.55159122      16.44179629      10.86939627       20
C       26.59989870      19.41073419      16.05939627       20
H       25.57424910      16.34402666      10.82580027       21
H       27.57724082      19.50850382      16.01580027       21
C       27.05418708      16.81006191       9.48989427       22
C       26.09730284      19.04246856      14.67989427       22
H       28.02813495      16.91027579       9.51895827       23
H       25.12335497      18.94225469      14.70895827       23
C       26.41131022      18.13809945       9.08507427       24
C       26.74017970      17.71443103      14.27507427       24
H       25.44262405      18.03951507       8.99580627       25
H       27.70886587      17.81301541      14.18580627       25
C       26.74764285      19.20867694      10.13656827       26
C       26.40384707      16.64385354      15.32656827       26
H       27.70447830      19.41725216      10.11788427       27
H       25.44701162      16.43527832      15.30788427       27
C       25.90743364      20.49271814       9.86357427       28
C       27.24405628      15.35981234      15.05357427       28
H       25.01841958      20.24259082       9.57501027       29
H       28.13307034      15.60993965      14.76501027       29
H       25.82611127      21.00437922      10.68463227       30
H       27.32537865      14.84815125      15.87463227       30
O       27.10615059      15.20501042      11.31158427       31
O       26.04533933      20.64752006      16.50158427       31
O       26.71654477      15.75089088      18.99174627       32
O       26.43494515      20.10163960      13.80174627       32
O       26.98568483      18.62694762      18.23919627       33
O       26.16580509      17.22558286      13.04919627       33
O       26.35888754      18.79804448      11.43510627       34
O       26.79260238      17.05448600      16.62510627       34
O       26.51538013      21.29931762       8.87228427       35
O       26.63610979      14.55321286      14.06228427       35
C       22.36426658      21.65780628      19.52527827        0
C       30.78722334      14.19472420      24.71527827        0
H       23.30933601      21.84682757      19.69654827        1
H       29.84215391      14.00570291      24.88654827        1
C       29.96974615      20.50086561      28.92021627        2
C       23.18174377      15.35166487      23.73021627        2
H       29.02982896      20.22629589      28.88907627        3
H       24.12166096      15.62623459      23.69907627        3
C       22.65552212      20.88379668      27.53760027        4
C       30.49596780      14.96873380      22.34760027        4
H       23.63735812      20.92208978      27.54590427        5
H       29.51413180      14.93044070      22.35590427        5
C       30.85293722      14.09695456      27.12032427        6
C       22.29855270      21.75557591      21.93032427        6
H       29.89465090      13.99592594      26.93867427        7
H       23.25683902      21.85660454      21.74867427        7
C       23.20513102      15.14797813      28.17700827        8
C       29.94635890      20.70455235      22.98700827        8
H       24.15418601      15.33618468      28.32440427        9
H       28.99730391      20.51634580      23.13440427        9
C       30.27122064      16.45157326      27.86768427       10
C       22.88026928      19.40095722      22.67768427       10
H       29.35719365      16.26336671      27.61026027       11
H       23.79429627      19.58916377      22.42026027       11
H       30.25645942      17.00723068      28.66175427       12
H       22.89503050      18.84529980      23.47175427       12
O       22.98456783      19.44169457      29.45271027       13
O       30.16692209      16.41083591      24.26271027       13
O       30.03399487      19.87351045      26.59198227       14
O       23.11749505      15.97902002      21.40198227       14
O       23.68597379      14.55321286      25.90171227       15
O       29.46551613      21.29931762      20.71171227       15
O       30.40697242      14.65912996      29.40081027       16
O       22.74451750      21.19340052      24.21081027       16
O       23.14811948      17.13596070      26.81930427       17
O       30.00337044      18.71656978      21.62930427       17
C       26.87471401      17.55962911      22.23445827       18
C       26.27677591      18.29290137      27.42445827       18
H       27.83920457      17.61340241      22.39742427       19
H       25.31228535      18.23912807      27.58742427       19
C       26.55159122      16.44179629      21.24939627       20
C       26.59989870      19.41073419      26.43939627       20
H       25.57424910      16.34402666      21.20580027       21
H       27.57724082      19.50850382      26.39580027       21
C       27.05418708      16.81006191      19.86989427       22
C       26.09730284      19.04246856      25.05989427       22
H       28.02813495      16.91027579      19.89895827       23
H       25.12335497      18.94225469      25.08895827       23
C       26.41131022      18.13809945      19.46507427       24
C       26.74017970      17.71443103      24.65507427       24
H       25.44262405      18.03951507      19.37580627       25
H       27.70886587      17.81301541      24.56580627       25
C       26.74764285      19.20867694      20.51656827       26
C       26.40384707      16.64385354      25.70656827       26
H       27.70447830      19.41725216      20.49788427       27
H       25.44701162      16.43527832      25.68788427       27
C       25.90743364      20.49271814      20.24357427       28
C       27.24405628      15.35981234      25.43357427       28
H       25.01841958      20.24259082      19.95501027       29
H       28.13307034      15.60993965      25.14501027       29
H       25.82611127      21.00437922      21.06463227       30
H       27.32537865      14.84815125      26.25463227       30
O       27.10615059      15.20501042      21.69158427       31
O       26.04533933      20.64752006      26.88158427       31
O       26.71654477      15.75089088      29.37174627       32
O       26.43494515      20.10163960      24.18174627       32
O       26.98568483      18.62694762      28.61919627       33
O       26.16580509      17.22558286      23.42919627       33
O       26.35888754      18.79804448      21.81510627       34
O       26.79260238      17.05448600      27.00510627       34
O       26.51538013      21.29931762      19.25228427       35
O       26.63610979      14.55321286      24.44228427       35
C       22.36426658      21.65780628      29.90527827        0
C       30.78722334      14.19472420      35.09527827        0
H       23.30933601      21.84682757      30.07654827        1
H       29.84215391      14.00570291      35.26654827        1
C       29.96974615      20.50086561      39.30021627        2
C       23.18174377      15.35166487      34.11021627        2
H       29.02982896      20.22629589      39.26907627        3
H       24.12166096      15.62623459      34.07907627        3
C       22.65552212      20.88379668      37.91760027        4
C       30.49596780      14.96873380      32.72760027        4
H       23.63735812      20.92208978      37.92590427        5
H       29.51413180      14.93044070      32.73590427        5
C       30.85293722      14.09695456      37.50032427        6
C       22.29855270      21.75557591      32.31032427        6
H       29.89465090      13.99592594      37.31867427        7
H       23.25683902      21.85660454      32.12867427        7
C       23.20513102      15.14797813      38.55700827        8
C       29.94635890      20.70455235      33.36700827        8
H       24.15418601      15.33618468      38.70440427        9
H       28.99730391      20.51634580      33.51440427        9
C       30.27122064      16.45157326      38.24768427       10
C       22.88026928      19.40095722      33.05768427       10
H       29.35719365      16.26336671      37.99026027       11
H       23.79429627      19.58916377      32.80026027       11
H       30.25645942      17.00723068      39.04175427       12
H       22.89503050      18.84529980      33.85175427       12
O       22.98456783      19.44169457      39.83271027       13
O       30.16692209      16.41083591      34.64271027       13
O       30.03399487      19.87351045      36.97198227       14
O       23.11749505      15.97902002      31.78198227       14
O       23.68597379      14.55321286      36.28171227       15
O       29.46551613      21.29931762      31.09171227       15
O       30.40697242      14.65912996      39.78081027       16
O       22.74451750      21.19340052      34.59081027       16
O       23.14811948      17.13596070      37.19930427       17
O       30.00337044      18.71656978      32.00930427       17
C       26.87471401      17.55962911      32.61445827       18
C       26.27677591      18.29290137      37.80445827       18
H       27.83920457      17.61340241      32.77742427       19
H       25.31228535      18.23912807      37.96742427       19
C       26.55159122      16.44179629      31.62939627       20
C       26.59989870      19.41073419      36.81939627       20
H       25.57424910      16.34402666      31.58580027       21
H       27.57724082      19.50850382      36.77580027       21
C       27.05418708      16.81006191      30.24989427       22
C       26.09730284      19.04246856      35.43989427       22
H       28.02813495      16.91027579      30.27895827       23
H       25.12335497      18.94225469      35.46895827       23
C       26.41131022      18.13809945      29.84507427       24
C       26.74017970      17.71443103      35.03507427       24
H       25.44262405      18.03951507      29.75580627       25
H       27.70886587      17.81301541      34.94580627       25
C       26.74764285      19.20867694      30.89656827       26
C       26.40384707      16.64385354      36.08656827       26
H       27.70447830      19.41725216      30.87788427       27
H       25.44701162      16.43527832      36.06788427       27
C       25.90743364      20.49271814      30.62357427       28
C       27.24405628      15.35981234      35.81357427       28
H       25.01841958      20.24259082      30.33501027       29
H       28.13307034      15.60993965      35.52501027       29
H       25.82611127      21.00437922      31.44463227       30
H       27.32537865      14.84815125      36.63463227       30
O       27.10615059      15.20501042      32.07158427       31
O       26.04533933      20.64752006      37.26158427       31
O       26.71654477      15.75089088      39.75174627       32
O       26.43494515      20.10163960      34.56174627       32
O       26.98568483      18.62694762      38.99919627       33
O       26.16580509      17.22558286      33.80919627       33
O       26.35888754      18.79804448      32.19510627       34
O       26.79260238      17.05448600      37.38510627       34
O       26.51538013      21.29931762      29.63228427       35
O       26.63610979      14.55321286      34.82228427       35
C       22.36426658      21.65780628      40.28527827        0
C       30.78722334      14.19472420      45.47527827        0
H       23.30933601      21.84682757      40.45654827        1
H       29.84215391      14.00570291      45.64654827        1
C       29.96974615      20.50086561      49.68021627        2
C       23.18174377      15.35166487      44.49021627        2
H       29.02982896      20.22629589      49.64907627        3
H       24.12166096      15.62623459      44.45907627        3
C       22.65552212      20.88379668      48.29760027        4
C       30.49596780      14.96873380      43.10760027        4
H       23.63735812      20.92208978      48.30590427        5
H       29.51413180      14.93044070      43.11590427        5
C       30.85293722      14.09695456      47.88032427        6
C       22.29855270      21.75557591      42.69032427        6
H       29.89465090      13.99592594      47.69867427        7
H       23.25683902      21.85660454      42.50867427        7
C       23.20513102      15.14797813      48.93700827        8
C       29.94635890      20.70455235      43.74700827        8
H       24.15418601      15.33618468      49.08440427        9
H       28.99730391      20.51634580      43.89440427        9
C       30.27122064      16.45157326      48.62768427       10
C       22.88026928      19.40095722      43.43768427       10
H       29.35719365      16.26336671      48.37026027       11
H       23.79429627      19.58916377      43.18026027       11
H       30.25645942      17.00723068      49.42175427       12
H       22.89503050      18.84529980      44.23175427       12
O       22.98456783      19.44169457      50.21271027       13
O       30.16692209      16.41083591      45.02271027       13
O       30.03399487      19.87351045      47.35198227       14
O       23.11749505      15.97902002      42.16198227       14
O       23.68597379      14.55321286      46.66171227       15
O       29.46551613      21.29931762      41.47171227       15
O       30.40697242      14.65912996      50.16081027       16
O       22.74451750      21.19340052      44.97081027       16
O       23.14811948      17.13596070      47.57930427       17
O       30.00337044      18.71656978      42.38930427       17
C       26.87471401      17.55962911      42.99445827       18
C       26.27677591      18.29290137      48.18445827       18
H       27.83920457      17.61340241      43.15742427       19
H       25.31228535      18.23912807      48.34742427       19
C       26.55159122      16.44179629      42.00939627       20
C       26.59989870      19.41073419      47.19939627       20
H       25.57424910      16.34402666      41.96580027       21
H       27.57724082      19.50850382      47.15580027       21
C       27.05418708      16.81006191      40.62989427       22
C       26.09730284      19.04246856      45.81989427       22
H       28.02813495      16.91027579      40.65895827       23
H       25.12335497      18.94225469      45.84895827       23
C       26.41131022      18.13809945      40.22507427       24
C       26.74017970      17.71443103      45.41507427       24
H       25.44262405      18.03951507      40.13580627       25
H       27.70886587      17.81301541      45.32580627       25
C       26.74764285      19.20867694      41.27656827       26
C       26.40384707      16.64385354      46.46656827       26
H       27.70447830      19.41725216      41.25788427       27
H       25.44701162      16.43527832      46.44788427       27
C       25.90743364      20.49271814      41.00357427       28
C       27.24405628      15.35981234      46.19357427       28
H       25.01841958      20.24259082      40.71501027       29
H       28.13307034      15.60993965      45.90501027       29
H       25.82611127      21.00437922      41.82463227       30
H       27.32537865      14.84815125      47.01463227       30
O       27.10615059      15.20501042      42.45158427       31
O       26.04533933      20.64752006      47.64158427       31
O       26.71654477      15.75089088      50.13174627       32
O       26.43494515      20.10163960      44.94174627       32
O       26.98568483      18.62694762      49.37919627       33
O       26.16580509      17.22558286      44.18919627       33
O       26.35888754      18.79804448      42.57510627       34
O       26.79260238      17.05448600      47.76510627       34
O       26.51538013      21.29931762      40.01228427       35
O       26.63610979      14.55321286      45.20228427       35
C       22.36426658      21.65780628      50.66527827        0
C       30.78722334      14.19472420      55.85527827        0
H       23.30933601      21.84682757      50.83654827        1
H       29.84215391      14.00570291      56.02654827        1
C       29.96974615      20.50086561      60.06021627        2
C       23.18174377      15.35166487      54.87021627        2
H       29.02982896      20.22629589      60.02907627        3
H       24.12166096      15.62623459      54.83907627        3
C       22.65552212      20.88379668      58.67760027        4
C       30.49596780      14.96873380      53.48760027        4
H       23.63735812      20.92208978      58.68590427        5
H       29.51413180      14.93044070      53.49590427        5
C       30.85293722      14.09695456      58.26032427        6
C       22.29855270      21.75557591      53.07032427        6
H       29.89465090      13.99592594      58.07867427        7
H       23.25683902      21.85660454      52.88867427        7
C       23.20513102      15.14797813      59.31700827        8
C       29.94635890      20.70455235      54.12700827        8
H       24.15418601      15.33618468      59.46440427        9
H       28.99730391      20.51634580      54.27440427        9
C       30.27122064      16.45157326      59.00768427       10
C       22.88026928      19.40095722      53.81768427       10
H       29.35719365      16.26336671      58.75026027       11
H       23.79429627      19.58916377      53.56026027       11
H       30.25645942      17.00723068      59.80175427       12
H       22.89503050      18.84529980      54.61175427       12
O       22.98456783      19.44169457      60.59271027       13
O       30.16692209      16.41083591      55.40271027       13
O       30.03399487      19.87351045      57.73198227       14
O       23.11749505      15.97902002      52.54198227       14
O       23.68597379      14.55321286      57.04171227       15
O       29.46551613      21.29931762      51.85171227       15
O       30.40697242      14.65912996      60.54081027       16
O       22.74451750      21.19340052      55.35081027       16
O       23.14811948      17.13596070      57.95930427       17
O       30.00337044      18.71656978      52.76930427       17
C       26.87471401      17.55962911      53.37445827       18
C       26.27677591      18.29290137      58.56445827       18
H       27.83920457      17.61340241      53.53742427       19
H       25.31228535      18.23912807      58.72742427       19
C       26.55159122      16.44179629      52.38939627       20
C       26.59989870      19.41073419      57.57939627       20
H       25.57424910      16.34402666      52.34580027       21
H       27.57724082      19.50850382      57.53580027       21
C       27.05418708      16.81006191      51.00989427       22
C       26.09730284      19.04246856      56.19989427       22
H       28.02813495      16.91027579      51.03895827       23
H       25.12335497      18.94225469      56.22895827       23
C       26.41131022      18.13809945      50.60507427       24
C       26.74017970      17.71443103      55.79507427       24
H       25.44262405      18.03951507      50.51580627       25
H       27.70886587      17.81301541      55.70580627       25
C       26.74764285      19.20867694      51.65656827       26
C       26.40384707      16.64385354      56.84656827       26
H       27.70447830      19.41725216      51.63788427       27
H       25.44701162      16.43527832      56.82788427       27
C       25.90743364      20.49271814      51.38357427       28
C       27.24405628      15.35981234      56.57357427       28
H       25.01841958      20.24259082      51.09501027       29
H       28.13307034      15.60993965      56.28501027       29
H       25.82611127      21.00437922      52.20463227       30
H       27.32537865      14.84815125      57.39463227       30
O       27.10615059      15.20501042      52.83158427       31
O       26.04533933      20.64752006      58.02158427       31
O       26.71654477      15.75089088      60.51174627       32
O       26.43494515      20.10163960      55.32174627       32
O       26.98568483      18.62694762      59.75919627       33
O       26.16580509      17.22558286      54.56919627       33
O       26.35888754      18.79804448      52.95510627       34
O       26.79260238      17.05448600      58.14510627       34
O       26.51538013      21.29931762      50.39228427       35
O       26.63610979      14.55321286      55.58228427       35
C       22.36426658      21.65780628      61.04527827        0
C       30.78722334      14.19472420      66.23527827        0
H       23.30933601      21.84682757      61.21654827        1
H       29.84215391      14.00570291      66.40654827        1
C       29.96974615      20.50086561      70.44021627        2
C       23.18174377      15.35166487      65.25021627        2
H       29.02982896      20.22629589      70.40907627        3
H       24.12166096      15.62623459      65.21907627        3
C       22.65552212      20.88379668      69.05760027        4
C       30.49596780      14.96873380      63.86760027        4
H       23.63735812      20.92208978      69.06590427        5
H       29.51413180      14.93044070      63.87590427        5
C       30.85293722      14.09695456      68.64032427        6
C       22.29855270      21.75557591      63.45032427        6
H       29.89465090      13.99592594      68.45867427        7
H       23.25683902      21.85660454      63.26867427        7
C       23.20513102      15.14797813      69.69700827        8
C       29.94635890      20.70455235      64.50700827        8
H       24.15418601      15.33618468      69.84440427        9
H       28.99730391      20.51634580      64.65440427        9
C       30.27122064      16.45157326      69.38768427       10
C       22.88026928      19.40095722      64.19768427       10
H       29.35719365      16.26336671      69.13026027       11
H       23.79429627      19.58916377      63.94026027       11
H       30.25645942      17.00723068      70.18175427       12
H       22.89503050      18.84529980      64.99175427       12
O       22.98456783      19.44169457      70.97271027       13
O       30.16692209      16.41083591      65.78271027       13
O       30.03399487      19.87351045      68.11198227       14
O       23.11749505      15.97902002      62.92198227       14
O       23.68597379      14.55321286      67.42171227       15
O       29.46551613      21.29931762      62.23171227       15
O       30.40697242      14.65912996      70.92081027       16
O       22.74451750      21.19340052      65.73081027       16
O       23.14811948      17.13596070      68.33930427       17
O       30.00337044      18.71656978      63.14930427       17
C       26.87471401      17.55962911      63.75445827       18
C       26.27677591      18.29290137      68.94445827       18
H       27.83920457      17.61340241      63.91742427       19
H       25.31228535      18.23912807      69.10742427       19
C       26.55159122      16.44179629      62.76939627       20
C       26.59989870      19.41073419      67.95939627       20
H       25.57424910      16.34402666      62.72580027       21
H       27.57724082      19.50850382      67.91580027       21
C       27.05418708      16.81006191      61.38989427       22
C       26.09730284      19.04246856      66.57989427       22
H       28.02813495      16.91027579      61.41895827       23
H       25.12335497      18.94225469      66.60895827       23
C       26.41131022      18.13809945      60.98507427       24
C       26.74017970      17.71443103      66.17507427       24
H       25.44262405      18.03951507      60.89580627       25
H       27.70886587      17.81301541      66.08580627       25
C       26.74764285      19.20867694      62.03656827       26
C       26.40384707      16.64385354      67.22656827       26
H       27.70447830      19.41725216      62.01788427       27
H       25.44701162      16.43527832      67.20788427       27
C       25.90743364      20.49271814      61.76357427       28
C       27.24405628      15.35981234      66.95357427       28
H       25.01841958      20.24259082      61.47501027       29
H       28.13307034      15.60993965      66.66501027       29
H       25.82611127      21.00437922      62.58463227       30
H       27.32537865      14.84815125      67.77463227       30
O       27.10615059      15.20501042      63.21158427       31
O       26.04533933      20.64752006      68.40158427       31
O       26.71654477      15.75089088      70.89174627       32
O       26.43494515      20.10163960      65.70174627       32
O       26.98568483      18.62694762      70.13919627       33
O       26.16580509      17.22558286      64.94919627       33
O       26.35888754      18.79804448      63.33510627       34
O       26.79260238      17.05448600      68.52510627       34
O       26.51538013      21.29931762      60.77228427       35
O       26.63610979      14.55321286      65.96228427       35
C       21.42877666      29.80527580       9.14527827        0
C       29.85173342      22.34219372      14.33527827        0
H       22.37384609      29.99429709       9.31654827        1
H       28.90666399      22.15317243      14.50654827        1
C       29.03425623      28.64833513      18.54021627        2
C       22.24625385      23.49913439      13.35021627        2
H       28.09433904      28.37376541      18.50907627        3
H       23.18617104      23.77370411      13.31907627        3
C       21.72003220      29.03126620      17.15760027        4
C       29.56047788      23.11620332      11.96760027        4
H       22.70186820      29.06955930      17.16590427        5
H       28.57864188      23.07791022      11.97590427        5
C       29.91744730      22.24442409      16.74032427        6
C       21.36306278      29.90304544      11.55032427        6
H       28.95916098      22.14339546      16.55867427        7
H       22.32134910      30.00407406      11.36867427        7
C       22.26964110      23.29544765      17.79700827        8
C       29.01086898      28.85202187      12.60700827        8
H       23.21869609      23.48365420      17.94440427        9
H       28.06181399      28.66381532      12.75440427        9
C       29.33573072      24.59904278      17.48768427       10
C       21.94477936      27.54842674      12.29768427       10
H       28.42170373      24.41083623      17.23026027       11
H       22.85880635      27.73663329      12.04026027       11
H       29.32096950      25.15470020      18.28175427       12
H       21.95954058      26.99276932      13.09175427       12
O       22.04907791      27.58916409      19.07271027       13
O       29.23143217      24.55830543      13.88271027       13
O       29.09850495      28.02097998      16.21198227       14
O       22.18200513      24.12648955      11.02198227       14
O       22.75048387      22.70068238      15.52171227       15
O       28.53002621      29.44678714      10.33171227       15
O       29.47148250      22.80659948      19.02081027       16
O       21.80902758      29.34087004      13.83081027       16
O       22.21262956      25.28343022      16.43930427       17
O       29.06788052      26.86403930      11.24930427       17
C       25.93922409      25.70709863      11.85445827       18
C       25.34128599      26.44037089      17.04445827       18
H       26.90371465      25.76087193      12.01742427       19
H       24.37679543      26.38659759      17.20742427       19
C       25.61610130      24.58926581      10.86939627       20
C       25.66440878      27.55820371      16.05939627       20
H       24.63875918      24.49149618      10.82580027       21
H       26.64175090      27.65597334      16.01580027       21
C       26.11869716      24.95753144       9.48989427       22
C       25.16181292      27.18993809      14.67989427       22
H       27.09264503      25.05774531       9.51895827       23
H       24.18786505      27.08972421      14.70895827       23
C       25.47582030      26.28556897       9.08507427       24
C       25.80468978      25.86190055      14.27507427       24
H       24.50713413      26.18698459       8.99580627       25
H       26.77337595      25.96048493      14.18580627       25
C       25.81215293      27.35614646      10.13656827       26
C       25.46835715      24.79132306      15.32656827       26
H       26.76898838      27.56472168      10.11788427       27
H       24.51152170      24.58274784      15.30788427       27
C       24.97194372      28.64018766       9.86357427       28
C       26.30856636      23.50728186      15.05357427       28
H       24.08292966      28.39006035       9.57501027       29
H       27.19758042      23.75740918      14.76501027       29
H       24.89062135      29.15184875      10.68463227       30
H       26.38988873      22.99562078      15.87463227       30
O       26.17066067      23.35247994      11.31158427       31
O       25.10984941      28.79498958      16.50158427       31
O       25.78105485      23.89836040      18.99174627       32
O       25.49945523      28.24910912      13.80174627       32
O       26.05019491      26.77441714      18.23919627       33
O       25.23031517      25.37305238      13.04919627       33
O       25.42339762      26.94551400      11.43510627       34
O       25.85711246      25.20195552      16.62510627       34
O       25.57989021      29.44678714       8.87228427       35
O       25.70061987      22.70068238      14.06228427       35
C       21.42877666      29.80527580      19.52527827        0
C       29.85173342      22.34219372      24.71527827        0
H       22.37384609      29.99429709      19.69654827        1
H       28.90666399      22.15317243      24.88654827        1
C       29.03425623      28.64833513      28.92021627        2
C       22.24625385      23.49913439      23.73021627        2
H       28.09433904      28.37376541      28.88907627        3
H       23.18617104      23.77370411      23.69907627        3
C       21.72003220      29.03126620      27.53760027        4
C       29.56047788      23.11620332      22.34760027        4
H       22.70186820      29.06955930      27.54590427        5
H       28.57864188      23.07791022      22.35590427        5
C       29.91744730      22.24442409      27.12032427        6
C       21.36306278      29.90304544      21.93032427        6
H       28.95916098      22.14339546      26.93867427        7
H       22.32134910      30.00407406      21.74867427        7
C       22.26964110      23.29544765      28.17700827        8
C       29.01086898      28.85202187      22.98700827        8
H       23.21869609      23.48365420      28.32440427        9
H       28.06181399      28.66381532      23.13440427        9
C       29.33573072      24.59904278      27.86768427       10
C       21.94477936      27.54842674      22.67768427       10
H       28.42170373      24.41083623      27.61026027       11
H       22.85880635      27.73663329      22.42026027       11
H       29.32096950      25.15470020      28.66175427       12
H       21.95954058      26.99276932      23.47175427       12
O       22.04907791      27.58916409      29.45271027       13
O       29.23143217      24.55830543      24.26271027       13
O       29.09850495      28.02097998      26.59198227       14
O       22.18200513      24.12648955      21.40198227       14
O       22.75048387      22.70068238      25.90171227       15
O       28.53002621      29.44678714      20.71171227       15
O       29.47148250      22.80659948      29.40081027       16
O       21.80902758      29.34087004      24.21081027       16
O       22.21262956      25.28343022      26.81930427       17
O       29.06788052      26.86403930      21.62930427       17
C       25.93922409      25.70709863      22.23445827       18
C       25.34128599      26.44037089      27.42445827       18
H       26.90371465      25.76087193      22.39742427       19
H       24.37679543      26.38659759      27.58742427       19
C       25.61610130      24.58926581      21.24939627       20
C       25.66440878      27.55820371      26.43939627       20
H       24.63875918      24.49149618      21.20580027       21
H       26.64175090      27.65597334      26.39580027       21
C       26.11869716      24.95753144      19.86989427       22
C       25.16181292      27.18993809      25.05989427       22
H       27.09264503      25.05774531      19.89895827       23
H       24.18786505      27.08972421      25.08895827       23
C       25.47582030      26.28556897      19.46507427       24
C       25.80468978      25.86190055      24.65507427       24
H       24.50713413      26.18698459      19.37580627       25
H       26.77337595      25.96048493      24.56580627       25
C       25.81215293      27.35614646      20.51656827       26
C       25.46835715      24.79132306      25.70656827       26
H       26.76898838      27.56472168      20.49788427       27
H       24.51152170      24.58274784      25.68788427       27
C       24.97194372      28.64018766      20.24357427       28
C       26.30856636      23.50728186      25.43357427       28
H       24.08292966      28.39006035      19.95501027       29
H       27.19758042      23.75740918      25.14501027       29
H       24.89062135      29.15184875      21.06463227       30
H       26.38988873      22.99562078      26.25463227       30
O       26.17066067      23.35247994      21.69158427       31
O       25.10984941      28.79498958      26.88158427       31
O       25.78105485      23.89836040      29.37174627       32
O       25.49945523      28.24910912      24.18174627       32
O       26.05019491      26.77441714      28.61919627       33
O       25.23031517      25.37305238      23.42919627       33
O       25.42339762      26.94551400      21.81510627       34
O       25.85711246      25.20195552      27.00510627       34
O       25.57989021      29.44678714      19.25228427       35
O       25.70061987      22.70068238      24.44228427       35
C       21.42877666      29.80527580      29.90527827        0
C       29.85173342      22.34219372      35.09527827        0
H       22.37384609      29.99429709      30.07654827        1
H       28.90666399      22.15317243      35.26654827        1
C       29.03425623      28.64833513      39.30021627        2
C       22.24625385      23.49913439      34.11021627        2
H       28.09433904      28.37376541      39.26907627        3
H       23.18617104      23.77370411      34.07907627        3
C       21.72003220      29.03126620      37.91760027        4
C       29.56047788      23.11620332      32.72760027        4
H       22.70186820      29.06955930      37.92590427        5
H       28.57864188      23.07791022      32.73590427        5
C       29.91744730      22.24442409      37.50032427        6
C       21.36306278      29.90304544      32.31032427        6
H       28.95916098      22.14339546      37.31867427        7
H       22.32134910      30.00407406      32.12867427        7
C       22.26964110      23.29544765      38.55700827        8
C       29.01086898      28.85202187      33.36700827        8
H       23.21869609      23.48365420      38.70440427        9
H       28.06181399      28.66381532      33.51440427        9
C       29.33573072      24.59904278      38.24768427       10
C       21.94477936      27.54842674      33.05768427       10
H       28.42170373      24.41083623      37.99026027       11
H       22.85880635      27.73663329      32.80026027       11
H       29.32096950      25.15470020      39.04175427       12
H       21.95954058      26.99276932      33.85175427       12
O       22.04907791      27.58916409      39.83271027       13
O       29.23143217      24.55830543      34.64271027       13
O       29.09850495      28.02097998      36.97198227       14
O       22.18200513      24.12648955      31.78198227       14
O       22.75048387      22.70068238      36.28171227       15
O       28.53002621      29.44678714      31.09171227       15
O       29.47148250      22.80659948      39.78081027       16
O       21.80902758      29.34087004      34.59081027       16
O       22.21262956      25.28343022      37.19930427       17
O       29.06788052      26.86403930      32.00930427       17
C       25.93922409      25.70709863      32.61445827       18
C       25.34128599      26.44037089      37.80445827       18
H       26.90371465      25.76087193      32.77742427       19
H       24.37679543      26.38659759      37.96742427       19
C       25.61610130      24.58926581      31.62939627       20
C       25.66440878      27.55820371      36.81939627       20
H       24.63875918      24.49149618      31.58580027       21
H       26.64175090      27.65597334      36.77580027       21
C       26.11869716      24.95753144      30.24989427       22
C       25.16181292      27.18993809      35.43989427       22
H       27.09264503      25.05774531      30.27895827       23
H       24.18786505      27.08972421      35.46895827       23
C       25.47582030      26.28556897      29.84507427       24
C       25.80468978      25.86190055      35.03507427       24
H       24.50713413      26.18698459      29.75580627       25
H       26.77337595      25.96048493      34.94580627       25
C       25.81215293      27.35614646      30.89656827       26
C       25.46835715      24.79132306      36.08656827       26
H       26.76898838      27.56472168      30.87788427       27
H       24.51152170      24.58274784      36.06788427       27
C       24.97194372      28.64018766      30.62357427       28
C       26.30856636      23.50728186      35.81357427       28
H       24.08292966      28.39006035      30.33501027       29
H       27.19758042      23.75740918      35.52501027       29
H       24.89062135      29.15184875      31.44463227       30
H       26.38988873      22.99562078      36.63463227       30
O       26.17066067      23.35247994      32.07158427       31
O       25.10984941      28.79498958      37.26158427       31
O       25.78105485      23.89836040      39.75174627       32
O       25.49945523      28.24910912      34.56174627       32
O       26.05019491      26.77441714      38.99919627       33
O       25.23031517      25.37305238      33.80919627       33
O       25.42339762      26.94551400      32.19510627       34
O       25.85711246      25.20195552      37.38510627       34
O       25.57989021      29.44678714      29.63228427       35
O       25.70061987      22.70068238      34.82228427       35
C       21.42877666      29.80527580      40.28527827        0
C       29.85173342      22.34219372      45.47527827        0
H       22.37384609      29.99429709      40.45654827        1
H       28.90666399      22.15317243      45.64654827        1
C       29.03425623      28.64833513      49.68021627        2
C       22.24625385      23.49913439      44.49021627        2
H       28.09433904      28.37376541      49.64907627        3
H       23.18617104      23.77370411      44.45907627        3
C       21.72003220      29.03126620      48.29760027        4
C       29.56047788      23.11620332      43.10760027        4
H       22.70186820      29.06955930      48.30590427        5
H       28.57864188      23.07791022      43.11590427        5
C       29.91744730      22.24442409      47.88032427        6
C       21.36306278      29.90304544      42.69032427        6
H       28.95916098      22.14339546      47.69867427        7
H       22.32134910      30.00407406      42.50867427        7
C       22.26964110      23.29544765      48.93700827        8
C       29.01086898      28.85202187      43.74700827        8
H       23.21869609      23.48365420      49.08440427        9
H       28.06181399      28.66381532      43.89440427        9
C       29.33573072      24.59904278      48.62768427       10
C       21.94477936      27.54842674      43.43768427       10
H       28.42170373      24.41083623      48.37026027       11
H       22.85880635      27.73663329      43.18026027       11
H       29.32096950      25.15470020      49.42175427       12
H       21.95954058      26.99276932      44.23175427       12
O       22.04907791      27.58916409      50.21271027       13
O       29.23143217      24.55830543      45.02271027       13
O       29.09850495      28.02097998      47.35198227       14
O       22.18200513      24.12648955      42.16198227       14
O       22.75048387      22.70068238      46.66171227       15
O       28.53002621      29.44678714      41.47171227       15
O       29.47148250      22.80659948      50.16081027       16
O       21.80902758      29.34087004      44.97081027       16
O       22.21262956      25.28343022      47.57930427       17
O       29.06788052      26.86403930      42.38930427       17
C       25.93922409      25.70709863      42.99445827       18
C       25.34128599      26.44037089      48.18445827       18
H       26.90371465      25.76087193      43.15742427       19
H       24.37679543      26.38659759      48.34742427       19
C       25.61610130      24.58926581      42.00939627       20
C       25.66440878      27.55820371      47.19939627       20
H       24.63875918      24.49149618      41.96580027       21
H       26.64175090      27.65597334      47.15580027       21
C       26.11869716      24.95753144      40.62989427       22
C       25.16181292      27.18993809      45.81989427       22
H       27.09264503      25.05774531      40.65895827       23
H       24.18786505      27.08972421      45.84895827       23
C       25.47582030      26.28556897      40.22507427       24
C       25.80468978      25.86190055      45.41507427       24
H       24.50713413      26.18698459      40.13580627       25
H       26.77337595      25.96048493      45.32580627       25
C       25.81215293      27.35614646      41.27656827       26
C       25.46835715      24.79132306      46.46656827       26
H       26.76898838      27.56472168      41.25788427       27
H       24.51152170      24.58274784      46.44788427       27
C       24.97194372      28.64018766      41.00357427       28
C       26.30856636      23.50728186      46.19357427       28
H       24.08292966      28.39006035      40.71501027       29
H       27.19758042      23.75740918      45.90501027       29
H       24.89062135      29.15184875      41.82463227       30
H       26.38988873      22.99562078      47.01463227       30
O       26.17066067      23.35247994      42.45158427       31
O       25.10984941      28.79498958      47.64158427       31
O       25.78105485      23.89836040      50.13174627       32
O       25.49945523      28.24910912      44.94174627       32
O       26.05019491      26.77441714      49.37919627       33
O       25.23031517      25.37305238      44.18919627       33
O       25.42339762      26.94551400      42.57510627       34
O       25.85711246      25.20195552      47.76510627       34
O       25.57989021      29.44678714      40.01228427       35
O       25.70061987      22.70068238      45.20228427       35
C       21.42877666      29.80527580      50.66527827        0
C       29.85173342      22.34219372      55.85527827        0
H       22.37384609      29.99429709      50.83654827        1
H       28.90666399      22.15317243      56.02654827        1
C       29.03425623      28.64833513      60.06021627        2
C       22.24625385      23.49913439      54.87021627        2
H       28.09433904      28.37376541      60.02907627        3
H       23.18617104      23.77370411      54.83907627        3
C       21.72003220      29.03126620      58.67760027        4
C       29.56047788      23.11620332      53.48760027        4
H       22.70186820      29.06955930      58.68590427        5
H       28.57864188      23.07791022      53.49590427        5
C       29.91744730      22.24442409      58.26032427        6
C       21.36306278      29.90304544      53.07032427        6
H       28.95916098      22.14339546      58.07867427        7
H       22.32134910      30.00407406      52.88867427        7
C       22.26964110      23.29544765      59.31700827        8
C       29.01086898      28.85202187      54.12700827        8
H       23.21869609      23.48365420      59.46440427        9
H       28.06181399      28.66381532      54.27440427        9
C       29.33573072      24.59904278      59.00768427       10
C       21.94477936      27.54842674      53.81768427       10
H       28.42170373      24.41083623      58.75026027       11
H       22.85880635      27.73663329      53.56026027       11
H       29.32096950      25.15470020      59.80175427       12
H       21.95954058      26.99276932      54.61175427       12
O       22.04907791      27.58916409      60.59271027       13
O       29.23143217      24.55830543      55.40271027       13
O       29.09850495      28.02097998      57.73198227       14
O       22.18200513      24.12648955      52.54198227       14
O       22.75048387      22.70068238      57.04171227       15
O       28.53002621      29.44678714      51.85171227       15
O       29.47148250      22.80659948      60.54081027       16
O       21.80902758      29.34087004      55.35081027       16
O       22.21262956      25.28343022      57.95930427       17
O       29.06788052      26.86403930      52.76930427       17
C       25.93922409      25.70709863      53.37445827       18
C       25.34128599      26.44037089      58.56445827       18
H       26.90371465      25.76087193      53.53742427       19
H       24.37679543      26.38659759      58.72742427       19
C       25.61610130      24.58926581      52.38939627       20
C       25.66440878      27.55820371      57.57939627       20
H       24.63875918      24.49149618      52.34580027       21
H       26.64175090      27.65597334      57.53580027       21
C       26.11869716      24.95753144      51.00989427       22
C       25.16181292      27.18993809      56.19989427       22
H       27.09264503      25.05774531      51.03895827       23
H       24.18786505      27.08972421      56.22895827       23
C       25.47582030      26.28556897      50.60507427       24
C       25.80468978      25.86190055      55.79507427       24
H       24.50713413      26.18698459      50.51580627       25
H       26.77337595      25.96048493      55.70580627       25
C       25.81215293      27.35614646      51.65656827       26
C       25.46835715      24.79132306      56.84656827       26
H       26.76898838      27.56472168      51.63788427       27
H       24.51152170      24.58274784      56.82788427       27
C       24.97194372      28.64018766      51.38357427       28
C       26.30856636      23.50728186      56.57357427       28
H       24.08292966      28.39006035      51.09501027       29
H       27.19758042      23.75740918      56.28501027       29
H       24.89062135      29.15184875      52.20463227       30
H       26.38988873      22.99562078      57.39463227       30
O       26.17066067      23.35247994      52.83158427       31
O       25.10984941      28.79498958      58.02158427       31
O       25.78105485      23.89836040      60.51174627       32
O       25.49945523      28.24910912      55.32174627       32
O       26.05019491      26.77441714      59.75919627       33
O       25.23031517      25.37305238      54.56919627       33
O       25.42339762      26.94551400      52.95510627       34
O       25.85711246      25.20195552      58.14510627       34
O       25.57989021      29.44678714      50.39228427       35
O       25.70061987      22.70068238      55.58228427       35
C       21.42877666      29.80527580      61.04527827        0
C       29.85173342      22.34219372      66.23527827        0
H       22.37384609      29.99429709      61.21654827        1
H       28.90666399      22.15317243      66.40654827        1
C       29.03425623      28.64833513      70.44021627        2
C       22.24625385      23.49913439      65.25021627        2
H       28.09433904      28.37376541      70.40907627        3
H       23.18617104      23.77370411      65.21907627        3
C       21.72003220      29.03126620      69.05760027        4
C       29.56047788      23.11620332      63.86760027        4
H       22.70186820      29.06955930      69.06590427        5
H       28.57864188      23.07791022      63.87590427        5
C       29.91744730      22.24442409      68.64032427        6
C       21.36306278      29.90304544      63.45032427        6
H       28.95916098      22.14339546      68.45867427        7
H       22.32134910      30.00407406      63.26867427        7
C       22.26964110      23.29544765      69.69700827        8
C       29.01086898      28.85202187      64.50700827        8
H       23.21869609      23.48365420      69.84440427        9
H       28.06181399      28.66381532      64.65440427        9
C       29.33573072      24.59904278      69.38768427       10
C       21.94477936      27.54842674      64.19768427       10
H       28.42170373      24.41083623      69.13026027       11
H       22.85880635      27.73663329      63.94026027       11
H       29.32096950      25.15470020      70.18175427       12
H       21.95954058      26.99276932      64.99175427       12
O       22.04907791      27.58916409      70.97271027       13
O       29.23143217      24.55830543      65.78271027       13
O       29.09850495      28.02097998      68.11198227       14
O       22.18200513      24.12648955      62.92198227       14
O       22.75048387      22.70068238      67.42171227       15
O       28.53002621      29.44678714      62.23171227       15
O       29.47148250      22.80659948      70.92081027       16
O       21.80902758      29.34087004      65.73081027       16
O       22.21262956      25.28343022      68.33930427       17
O       29.06788052      26.86403930      63.14930427       17
C       25.93922409      25.70709863      63.75445827       18
C       25.34128599      26.44037089      68.94445827       18
H       26.90371465      25.76087193      63.91742427       19
H       24.37679543      26.38659759      69.10742427       19
C       25.61610130      24.58926581      62.76939627       20
C       25.66440878      27.55820371      67.95939627       20
H       24.63875918      24.49149618      62.72580027       21
H       26.64175090      27.65597334      67.91580027       21
C       26.11869716      24.95753144      61.38989427       22
C       25.16181292      27.18993809      66.57989427       22
H       27.09264503      25.05774531      61.41895827       23
H       24.18786505      27.08972421      66.60895827       23
C       25.47582030      26.28556897      60.98507427       24
C       25.80468978      25.86190055      66.17507427       24
H       24.50713413      26.18698459      60.89580627       25
H       26.77337595      25.96048493      66.08580627       25
C       25.81215293      27.35614646      62.03656827       26
C       25.46835715      24.79132306      67.22656827       26
H       26.76898838      27.56472168      62.01788427       27
H       24.51152170      24.58274784      67.20788427       27
C       24.97194372      28.64018766      61.76357427       28
C       26.30856636      23.50728186      66.95357427       28
H       24.08292966      28.39006035      61.47501027       29
H       27.19758042      23.75740918      66.66501027       29
H       24.89062135      29.15184875      62.58463227       30
H       26.38988873      22.99562078      67.77463227       30
O       26.17066067      23.35247994      63.21158427       31
O       25.10984941      28.79498958      68.40158427       31
O       25.78105485      23.89836040      70.89174627       32
O       25.49945523      28.24910912      65.70174627       32
O       26.05019491      26.77441714      70.13919627       33
O       25.23031517      25.37305238      64.94919627       33
O       25.42339762      26.94551400      63.33510627       34
O       25.85711246      25.20195552      68.52510627       34
O       25.57989021      29.44678714      60.77228427       35
O       25.70061987      22.70068238      65.96228427       35
C       30.14826658      21.65780628       9.14527827        0
C       38.57122334      14.19472420      14.33527827        0
H       31.09333601      21.84682757       9.31654827        1
H       37.62615391      14.00570291      14.50654827        1
C       37.75374615      20.50086561      18.54021627        2
C       30.96574377      15.35166487      13.35021627        2
H       36.81382896      20.22629589      18.50907627        3
H       31.90566096      15.62623459      13.31907627        3
C       30.43952212      20.88379668      17.15760027        4
C       38.27996780      14.96873380      11.96760027        4
H       31.42135812      20.92208978      17.16590427        5
H       37.29813180      14.93044070      11.97590427        5
C       38.63693722      14.09695456      16.74032427        6
C       30.08255270      21.75557591      11.55032427        6
H       37.67865090      13.99592594      16.55867427        7
H       31.04083902      21.85660454      11.36867427        7
C       30.98913102      15.14797813      17.79700827        8
C       37.73035890      20.70455235      12.60700827        8
H       31.93818601      15.33618468      17.94440427        9
H       36.78130391      20.51634580      12.75440427        9
C       38.05522064      16.45157326      17.48768427       10
C       30.66426928      19.40095722      12.29768427       10
H       37.14119365      16.26336671      17.23026027       11
H       31.57829627      19.58916377      12.04026027       11
H       38.04045942      17.00723068      18.28175427       12
H       30.67903050      18.84529980      13.09175427       12
O       30.76856783      19.44169457      19.07271027       13
O       37.95092209      16.41083591      13.88271027       13
O       37.81799487      19.87351045      16.21198227       14
O       30.90149505      15.97902002      11.02198227       14
O       31.46997379      14.55321286      15.52171227       15
O       37.24951613      21.29931762      10.33171227       15
O       38.19097242      14.65912996      19.02081027       16
O       30.52851750      21.19340052      13.83081027       16
O       30.93211948      17.13596070      16.43930427       17
O       37.78737044      18.71656978      11.24930427       17
C       34.65871401      17.55962911      11.85445827       18
C       34.06077591      18.29290137      17.04445827       18
H       35.62320457      17.61340241      12.01742427       19
H       33.09628535      18.23912807      17.20742427       19
C       34.33559122      16.44179629      10.86939627       20
C       34.38389870      19.41073419      16.05939627       20
H       33.35824910      16.34402666      10.82580027       21
H       35.36124082      19.50850382      16.01580027       21
C       34.83818708      16.81006191       9.48989427       22
C       33.88130284      19.04246856      14.67989427       22
H       35.81213495      16.91027579       9.51895827       23
H       32.90735497      18.94225469      14.70895827       23
C       34.19531022      18.13809945       9.08507427       24
C       34.52417970      17.71443103      14.27507427       24
H       33.22662405      18.03951507       8.99580627       25
H       35.49286587      17.81301541      14.18580627       25
C       34.53164285      19.20867694      10.13656827       26
C       34.18784707      16.64385354      15.32656827       26
H       35.48847830      19.41725216      10.11788427       27
H       33.23101162      16.43527832      15.30788427       27
C       33.69143364      20.49271814       9.86357427       28
C       35.02805628      15.35981234      15.05357427       28
H       32.80241958      20.24259082       9.57501027       29
H       35.91707034      15.60993965      14.76501027       29
H       33.61011127      21.00437922      10.68463227       30
H       35.10937865      14.84815125      15.87463227       30
O       34.89015059      15.20501042      11.31158427       31
O       33.82933933      20.64752006      16.50158427       31
O       34.50054477      15.75089088      18.99174627       32
O       34.21894515      20.10163960      13.80174627       32
O       34.76968483      18.62694762      18.23919627       33
O       33.94980509      17.22558286      13.04919627       33
O       34.14288754      18.79804448      11.43510627       34
O       34.57660238      17.05448600      16.62510627       34
O       34.29938013      21.29931762       8.87228427       35
O       34.42010979      14.55321286      14.06228427       35
C       30.14826658      21.65780628      19.52527827        0
C       38.57122334      14.19472420      24.71527827        0
H       31.09333601      21.84682757      19.69654827        1
H       37.62615391      14.00570291      24.88654827        1
C       37.75374615      20.50086561      28.92021627        2
C       30.96574377      15.35166487      23.73021627        2
H       36.81382896      20.22629589      28.88907627        3
H       31.90566096      15.62623459      23.69907627        3
C       30.43952212      20.88379668      27.53760027        4
C       38.27996780      14.96873380      22.34760027        4
H       31.42135812      20.92208978      27.54590427        5
H       37.29813180      14.93044070      22.35590427        5
C       38.63693722      14.09695456      27.12032427        6
C       30.08255270      21.75557591      21.93032427        6
H       37.67865090      13.99592594      26.93867427        7
H       31.04083902      21.85660454      21.74867427        7
C       30.98913102      15.14797813      28.17700827        8
C       37.73035890      20.70455235      22.98700827        8
H       31.93818601      15.33618468      28.32440427        9
H       36.78130391      20.51634580      23.13440427        9
C       38.05522064      16.45157326      27.86768427       10
C       30.66426928      19.40095722      22.67768427       10
H       37.14119365      16.26336671      27.61026027       11
H       31.57829627      19.58916377      22.42026027       11
H       38.04045942      17.00723068      28.66175427       12
H       30.67903050      18.84529980      23.47175427       12
O       30.76856783      19.44169457      29.45271027       13
O       37.95092209      16.41083591      24.26271027       13
O       37.81799487      19.87351045      26.59198227       14
O       30.90149505      15.97902002      21.40198227       14
O       31.46997379      14.55321286      25.90171227       15
O       37.24951613      21.29931762      20.71171227       15
O       38.19097242      14.65912996      29.40081027       16
O       30.52851750      21.19340052      24.21081027       16
O       30.93211948      17.13596070      26.81930427       17
O       37.78737044      18.71656978      21.62930427       17
C       34.65871401      17.55962911      22.23445827       18
C       34.06077591      18.29290137      27.42445827       18
H       35.62320457      17.61340241      22.39742427       19
H       33.09628535      18.23912807      27.58742427       19
C       34.33559122      16.44179629      21.24939627       20
C       34.38389870      19.41073419      26.43939627       20
H       33.35824910      16.34402666      21.20580027       21
H       35.36124082      19.50850382      26.39580027       21
C       34.83818708      16.81006191      19.86989427       22
C       33.88130284      19.04246856      25.05989427       22
H       35.81213495      16.91027579      19.89895827       23
H       32.90735497      18.94225469      25.08895827       23
C       34.19531022      18.13809945      19.46507427       24
C       34.52417970      17.71443103      24.65507427       24
H       33.22662405      18.03951507      19.37580627       25
H       35.49286587      17.81301541      24.56580627       25
C       34.53164285      19.20867694      20.51656827       26
C       34.18784707      16.64385354      25.70656827       26
H       35.48847830      19.41725216      20.49788427       27
H       33.23101162      16.43527832      25.68788427       27
C       33.69143364      20.49271814      20.24357427       28
C       35.02805628      15.35981234      25.43357427       28
H       32.80241958      20.24259082      19.95501027       29
H       35.91707034      15.60993965      25.14501027       29
H       33.61011127      21.00437922      21.06463227       30
H       35.10937865      14.84815125      26.25463227       30
O       34.89015059      15.20501042      21.69158427       31
O       33.82933933      20.64752006      26.88158427       31
O       34.50054477      15.75089088      29.37174627       32
O       34.21894515      20.10163960      24.18174627       32
O       34.76968483      18.62694762      28.61919627       33
O       33.94980509      17.22558286      23.42919627       33
O       34.14288754      18.79804448      21.81510627       34
O       34.57660238      17.05448600      27.00510627       34
O       34.29938013      21.29931762      19.25228427       35
O       34.42010979      14.55321286      24.44228427       35
C       30.14826658      21.65780628      29.90527827        0
C       38.57122334      14.19472420      35.09527827        0
H       31.09333601      21.84682757      30.07654827        1
H       37.62615391      14.00570291      35.26654827        1
C       37.75374615      20.50086561      39.30021627        2
C       30.96574377      15.35166487      34.11021627        2
H       36.81382896      20.22629589      39.26907627        3
H       31.90566096      15.62623459      34.07907627        3
C       30.43952212      20.88379668      37.91760027        4
C       38.27996780      14.96873380      32.72760027        4
H       31.42135812      20.92208978      37.92590427        5
H       37.29813180      14.93044070      32.73590427        5
C       38.63693722      14.09695456      37.50032427        6
C       30.08255270      21.75557591      32.31032427        6
H       37.67865090      13.99592594      37.31867427        7
H       31.04083902      21.85660454      32.12867427        7
C       30.98913102      15.14797813      38.55700827        8
C       37.73035890      20.70455235      33.36700827        8
H       31.93818601      15.33618468      38.70440427        9
H       36.78130391      20.51634580      33.51440427        9
C       38.05522064      16.45157326      38.24768427       10
C       30.66426928      19.40095722      33.05768427       10
H       37.14119365      16.26336671      37.99026027       11
H       31.57829627      19.58916377      32.80026027       11
H       38.04045942      17.00723068      39.04175427       12
H       30.67903050      18.84529980      33.85175427       12
O       30.76856783      19.44169457      39.83271027       13
O       37.95092209      16.41083591      34.64271027       13
O       37.81799487      19.87351045      36.97198227       14
O       30.90149505      15.97902002      31.78198227       14
O       31.46997379      14.55321286      36.28171227       15
O       37.24951613      21.29931762      31.09171227       15
O       38.19097242      14.65912996      39.78081027       16
O       30.52851750      21.19340052      34.59081027       16
O       30.93211948      17.13596070      37.19930427       17
O       37.78737044      18.71656978      32.00930427       17
C       34.65871401      17.55962911      32.61445827       18
C       34.06077591      18.29290137      37.80445827       18
H       35.62320457      17.61340241      32.77742427       19
H       33.09628535      18.23912807      37.96742427       19
C       34.33559122      16.44179629      31.62939627       20
C       34.38389870      19.41073419      36.81939627       20
H       33.35824910      16.34402666      31.58580027       21
H       35.36124082      19.50850382      36.77580027       21
C       34.83818708      16.81006191      30.24989427       22
C       33.88130284      19.04246856      35.43989427       22
H       35.81213495      16.91027579      30.27895827       23
H       32.90735497      18.94225469      35.46895827       23
C       34.19531022      18.13809945      29.84507427       24
C       34.52417970      17.71443103      35.03507427       24
H       33.22662405      18.03951507      29.75580627       25
H       35.49286587      17.81301541      34.94580627       25
C       34.53164285      19.20867694      30.89656827       26
C       34.18784707      16.64385354      36.08656827       26
H       35.48847830      19.41725216      30.87788427       27
H       33.23101162      16.43527832      36.06788427       27
C       33.69143364      20.49271814      30.62357427       28
C       35.02805628      15.35981234      35.81357427       28
H       32.80241958      20.24259082      30.33501027       29
H       35.91707034      15.60993965      35.52501027       29
H       33.61011127      21.00437922      31.44463227       30
H       35.10937865      14.84815125      36.63463227       30
O       34.89015059      15.20501042      32.07158427       31
O       33.82933933      20.64752006      37.26158427       31
O       34.50054477      15.75089088      39.75174627       32
O       34.21894515      20.10163960      34.56174627       32
O       34.76968483      18.62694762      38.99919627       33
O       33.94980509      17.22558286      33.80919627       33
O       34.14288754      18.79804448      32.19510627       34
O       34.57660238      17.05448600      37.38510627       34
O       34.29938013      21.29931762      29.63228427       35
O       34.42010979      14.55321286      34.82228427       35
C       30.14826658      21.65780628      40.28527827        0
C       38.57122334      14.19472420      45.47527827        0
H       31.09333601      21.84682757      40.45654827        1
H       37.62615391      14.00570291      45.64654827        1
C       37.75374615      20.50086561      49.68021627        2
C       30.96574377      15.35166487      44.49021627        2
H       36.81382896      20.22629589      49.64907627        3
H       31.90566096      15.62623459      44.45907627        3
C       30.43952212      20.88379668      48.29760027        4
C       38.27996780      14.96873380      43.10760027        4
H       31.42135812      20.92208978      48.30590427        5
H       37.29813180      14.93044070      43.11590427        5
C       38.63693722      14.09695456      47.88032427        6
C       30.08255270      21.75557591      42.69032427        6
H       37.67865090      13.99592594      47.69867427        7
H       31.04083902      21.85660454      42.50867427        7
C       30.98913102      15.14797813      48.93700827        8
C       37.73035890      20.70455235      43.74700827        8
H       31.93818601      15.33618468      49.08440427        9
H       36.78130391      20.51634580      43.89440427        9
C       38.05522064      16.45157326      48.62768427       10
C       30.66426928      19.40095722      43.43768427       10
H       37.14119365      16.26336671      48.37026027       11
H       31.57829627      19.58916377      43.18026027       11
H       38.04045942      17.00723068      49.42175427       12
H       30.67903050      18.84529980      44.23175427       12
O       30.76856783      19.44169457      50.21271027       13
O       37.95092209      16.41083591      45.02271027       13
O       37.81799487      19.87351045      47.35198227       14
O       30.90149505      15.97902002      42.16198227       14
O       31.46997379      14.55321286      46.66171227       15
O       37.24951613      21.29931762      41.47171227       15
O       38.19097242      14.65912996      50.16081027       16
O       30.52851750      21.19340052      44.97081027       16
O       30.93211948      17.13596070      47.57930427       17
O       37.78737044      18.71656978      42.38930427       17
C       34.65871401      17.55962911      42.99445827       18
C       34.06077591      18.29290137      48.18445827       18
H       35.62320457      17.61340241      43.15742427       19
H       33.09628535      18.23912807      48.34742427       19
C       34.33559122      16.44179629      42.00939627       20
C       34.38389870      19.41073419      47.19939627       20
H       33.35824910      16.34402666      41.96580027       21
H       35.36124082      19.50850382      47.15580027       21
C       34.83818708      16.81006191      40.62989427       22
C       33.88130284      19.04246856      45.81989427       22
H       35.81213495      16.91027579      40.65895827       23
H       32.90735497      18.94225469      45.84895827       23
C       34.19531022      18.13809945      40.22507427       24
C       34.52417970      17.71443103      45.41507427       24
H       33.22662405      18.03951507      40.13580627       25
H       35.49286587      17.81301541      45.32580627       25
C       34.53164285      19.20867694      41.27656827       26
C       34.18784707      16.64385354      46.46656827       26
H       35.48847830      19.41725216      41.25788427       27
H       33.23101162      16.43527832      46.44788427       27
C       33.69143364      20.49271814      41.00357427       28
C       35.02805628      15.35981234      46.19357427       28
H       32.80241958      20.24259082      40.71501027       29
H       35.91707034      15.60993965      45.90501027       29
H       33.61011127      21.00437922      41.82463227       30
H       35.10937865      14.84815125      47.01463227       30
O       34.89015059      15.20501042      42.45158427       31
O       33.82933933      20.64752006      47.64158427       31
O       34.50054477      15.75089088      50.13174627       32
O       34.21894515      20.10163960      44.94174627       32
O       34.76968483      18.62694762      49.37919627       33
O       33.94980509      17.22558286      44.18919627       33
O       34.14288754      18.79804448      42.57510627       34
O       34.57660238      17.05448600      47.76510627       34
O       34.29938013      21.29931762      40.01228427       35
O       34.42010979      14.55321286      45.20228427       35
C       30.14826658      21.65780628      50.66527827        0
C       38.57122334      14.19472420      55.85527827        0
H       31.09333601      21.84682757      50.83654827        1
H       37.62615391      14.00570291      56.02654827        1
C       37.75374615      20.50086561      60.06021627        2
C       30.96574377      15.35166487      54.87021627        2
H       36.81382896      20.22629589      60.02907627        3
H       31.90566096      15.62623459      54.83907627        3
C       30.43952212      20.88379668      58.67760027        4
C       38.27996780      14.96873380      53.48760027        4
H       31.42135812      20.92208978      58.68590427        5
H       37.29813180      14.93044070      53.49590427        5
C       38.63693722      14.09695456      58.26032427        6
C       30.08255270      21.75557591      53.07032427        6
H       37.67865090      13.99592594      58.07867427        7
H       31.04083902      21.85660454      52.88867427        7
C       30.98913102      15.14797813      59.31700827        8
C       37.73035890      20.70455235      54.12700827        8
H       31.93818601      15.33618468      59.46440427        9
H       36.78130391      20.51634580      54.27440427        9
C       38.05522064      16.45157326      59.00768427       10
C       30.66426928      19.40095722      53.81768427       10
H       37.14119365      16.26336671      58.75026027       11
H       31.57829627      19.58916377      53.56026027       11
H       38.04045942      17.00723068      59.80175427       12
H       30.67903050      18.84529980      54.61175427       12
O       30.76856783      19.44169457      60.59271027       13
O       37.95092209      16.41083591      55.40271027       13
O       37.81799487      19.87351045      57.73198227       14
O       30.90149505      15.97902002      52.54198227       14
O       31.46997379      14.55321286      57.04171227       15
O       37.24951613      21.29931762      51.85171227       15
O       38.19097242      14.65912996      60.54081027       16
O       30.52851750      21.19340052      55.35081027       16
O       30.93211948      17.13596070      57.95930427       17
O       37.78737044      18.71656978      52.76930427       17
C       34.65871401      17.55962911      53.37445827       18
C       34.06077591      18.29290137      58.56445827       18
H       35.62320457      17.61340241      53.53742427       19
H       33.09628535      18.23912807      58.72742427       19
C       34.33559122      16.44179629      52.38939627       20
C       34.38389870      19.41073419      57.57939627       20
H       33.35824910      16.34402666      52.34580027       21
H       35.36124082      19.50850382      57.53580027       21
C       34.83818708      16.81006191      51.00989427       22
C       33.88130284      19.04246856      56.19989427       22
H       35.81213495      16.91027579      51.03895827       23
H       32.90735497      18.94225469      56.22895827       23
C       34.19531022      18.13809945      50.60507427       24
C       34.52417970      17.71443103      55.79507427       24
H       33.22662405      18.03951507      50.51580627       25
H       35.49286587      17.81301541      55.70580627       25
C       34.53164285      19.20867694      51.65656827       26
C       34.18784707      16.64385354      56.84656827       26
H       35.48847830      19.41725216      51.63788427       27
H       33.23101162      16.43527832      56.82788427       27
C       33.69143364      20.49271814      51.38357427       28
C       35.02805628      15.35981234      56.57357427       28
H       32.80241958      20.24259082      51.09501027       29
H       35.91707034      15.60993965      56.28501027       29
H       33.61011127      21.00437922      52.20463227       30
H       35.10937865      14.84815125      57.39463227       30
O       34.89015059      15.20501042      52.83158427       31
O       33.82933933      20.64752006      58.02158427       31
O       34.50054477      15.75089088      60.51174627       32
O       34.21894515      20.10163960      55.32174627       32
O       34.76968483      18.62694762      59.75919627       33
O       33.94980509      17.22558286      54.56919627       33
O       34.14288754      18.79804448      52.95510627       34
O       34.57660238      17.05448600      58.14510627       34
O       34.29938013      21.29931762      50.39228427       35
O       34.42010979      14.55321286      55.58228427       35
C       30.14826658      21.65780628      61.04527827        0
C       38.57122334      14.19472420      66.23527827        0
H       31.09333601      21.84682757      61.21654827        1
H       37.62615391      14.00570291      66.40654827        1
C       37.75374615      20.50086561      70.44021627        2
C       30.96574377      15.35166487      65.25021627        2
H       36.81382896      20.22629589      70.40907627        3
H       31.90566096      15.62623459      65.21907627        3
C       30.43952212      20.88379668      69.05760027        4
C       38.27996780      14.96873380      63.86760027        4
H       31.42135812      20.92208978      69.06590427        5
H       37.29813180      14.93044070      63.87590427        5
C       38.63693722      14.09695456      68.64032427        6
C       30.08255270      21.75557591      63.45032427        6
H       37.67865090      13.99592594      68.45867427        7
H       31.04083902      21.85660454      63.26867427        7
C       30.98913102      15.14797813      69.69700827        8
C       37.73035890      20.70455235      64.50700827        8
H       31.93818601      15.33618468      69.84440427        9
H       36.78130391      20.51634580      64.65440427        9
C       38.05522064      16.45157326      69.38768427       10
C       30.66426928      19.40095722      64.19768427       10
H       37.14119365      16.26336671      69.13026027       11
H       31.57829627      19.58916377      63.94026027       11
H       38.04045942      17.00723068      70.18175427       12
H       30.67903050      18.84529980      64.99175427       12
O       30.76856783      19.44169457      70.97271027       13
O       37.95092209      16.41083591      65.78271027       13
O       37.81799487      19.87351045      68.11198227       14
O       30.90149505      15.97902002      62.92198227       14
O       31.46997379      14.55321286      67.42171227       15
O       37.24951613      21.29931762      62.23171227       15
O       38.19097242      14.65912996      70.92081027       16
O       30.52851750      21.19340052      65.73081027       16
O       30.93211948      17.13596070      68.33930427       17
O       37.78737044      18.71656978      63.14930427       17
C       34.65871401      17.55962911      63.75445827       18
C       34.06077591      18.29290137      68.94445827       18
H       35.62320457      17.61340241      63.91742427       19
H       33.09628535      18.23912807      69.10742427       19
C       34.33559122      16.44179629      62.76939627       20
C       34.38389870      19.41073419      67.95939627       20
H       33.35824910      16.34402666      62.72580027       21
H       35.36124082      19.50850382      67.91580027       21
C       34.83818708      16.81006191      61.38989427       22
C       33.88130284      19.04246856      66.57989427       22
H       35.81213495      16.91027579      61.41895827       23
H       32.90735497      18.94225469      66.60895827       23
C       34.19531022      18.13809945      60.98507427       24
C       34.52417970      17.71443103      66.17507427       24
H       33.22662405      18.03951507      60.89580627       25
H       35.49286587      17.81301541      66.08580627       25
C       34.53164285      19.20867694      62.03656827       26
C       34.18784707      16.64385354      67.22656827       26
H       35.48847830      19.41725216      62.01788427       27
H       33.23101162      16.43527832      67.20788427       27
C       33.69143364      20.49271814      61.76357427       28
C       35.02805628      15.35981234      66.95357427       28
H       32.80241958      20.24259082      61.47501027       29
H       35.91707034      15.60993965      66.66501027       29
H       33.61011127      21.00437922      62.58463227       30
H       35.10937865      14.84815125      67.77463227       30
O       34.89015059      15.20501042      63.21158427       31
O       33.82933933      20.64752006      68.40158427       31
O       34.50054477      15.75089088      70.89174627       32
O       34.21894515      20.10163960      65.70174627       32
O       34.76968483      18.62694762      70.13919627       33
O       33.94980509      17.22558286      64.94919627       33
O       34.14288754      18.79804448      63.33510627       34
O       34.57660238      17.05448600      68.52510627       34
O       34.29938013      21.29931762      60.77228427       35
O       34.42010979      14.55321286      65.96228427       35
C       29.21277666      29.80527580       9.14527827        0
C       37.63573342      22.34219372      14.33527827        0
H       30.15784609      29.99429709       9.31654827        1
H       36.69066399      22.15317243      14.50654827        1
C       36.81825623      28.64833513      18.54021627        2
C       30.03025385      23.49913439      13.35021627        2
H       35.87833904      28.37376541      18.50907627        3
H       30.97017104      23.77370411      13.31907627        3
C       29.50403220      29.03126620      17.15760027        4
C       37.34447788      23.11620332      11.96760027        4
H       30.48586820      29.06955930      17.16590427        5
H       36.36264188      23.07791022      11.97590427        5
C       37.70144730      22.24442409      16.74032427        6
C       29.14706278      29.90304544      11.55032427        6
H       36.74316098      22.14339546      16.55867427        7
H       30.10534910      30.00407406      11.36867427        7
C       30.05364110      23.29544765      17.79700827        8
C       36.79486898      28.85202187      12.60700827        8
H       31.00269609      23.48365420      17.94440427        9
H       35.84581399      28.66381532      12.75440427        9
C       37.11973072      24.59904278      17.48768427       10
C       29.72877936      27.54842674      12.29768427       10
H       36.20570373      24.41083623      17.23026027       11
H       30.64280635      27.73663329      12.04026027       11
H       37.10496950      25.15470020      18.28175427       12
H       29.74354058      26.99276932      13.09175427       12
O       29.83307791      27.58916409      19.07271027       13
O       37.01543217      24.55830543      13.88271027       13
O       36.88250495      28.02097998      16.21198227       14
O       29.96600513      24.12648955      11.02198227       14
O       30.53448387      22.70068238      15.52171227       15
O       36.31402621      29.44678714      10.33171227       15
O       37.25548250      22.80659948      19.02081027       16
O       29.59302758      29.34087004      13.83081027       16
O       29.99662956      25.28343022      16.43930427       17
O       36.85188052      26.86403930      11.24930427       17
C       33.72322409      25.70709863      11.85445827       18
C       33.12528599      26.44037089      17.04445827       18
H       34.68771465      25.76087193      12.01742427       19
H       32.16079543      26.38659759      17.20742427       19
C       33.40010130      24.58926581      10.86939627       20
C       33.44840878      27.55820371      16.05939627       20
H       32.42275918      24.49149618      10.82580027       21
H       34.42575090      27.65597334      16.01580027       21
C       33.90269716      24.95753144       9.48989427       22
C       32.94581292      27.18993809      14.67989427       22
H       34.87664503      25.05774531       9.51895827       23
H       31.97186505      27.08972421      14.70895827       23
C       33.25982030      26.28556897       9.08507427       24
C       33.58868978      25.86190055      14.27507427       24
H       32.29113413      26.18698459       8.99580627       25
H       34.55737595      25.96048493      14.18580627       25
C       33.59615293      27.35614646      10.13656827       26
C       33.25235715      24.79132306      15.32656827       26
H       34.55298838      27.56472168      10.11788427       27
H       32.29552170      24.58274784      15.30788427       27
C       32.75594372      28.64018766       9.86357427       28
C       34.09256636      23.50728186      15.05357427       28
H       31.86692966      28.39006035       9.57501027       29
H       34.98158042      23.75740918      14.76501027       29
H       32.67462135      29.15184875      10.68463227       30
H       34.17388873      22.99562078      15.87463227       30
O       33.95466067      23.35247994      11.31158427       31
O       32.89384941      28.79498958      16.50158427       31
O       33.56505485      23.89836040      18.99174627       32
O       33.28345523      28.24910912      13.80174627       32
O       33.83419491      26.77441714      18.23919627       33
O       33.01431517      25.37305238      13.04919627       33
O       33.20739762      26.94551400      11.43510627       34
O       33.64111246      25.20195552      16.62510627       34
O       33.36389021      29.44678714       8.87228427       35
O       33.48461987      22.70068238      14.06228427       35
C       29.21277666      29.80527580      19.52527827        0
C       37.63573342      22.34219372      24.71527827        0
H       30.15784609      29.99429709      19.69654827        1
H       36.69066399      22.15317243      24.88654827        1
C       36.81825623      28.64833513      28.92021627        2
C       30.03025385      23.49913439      23.73021627        2
H       35.87833904      28.37376541      28.88907627        3
H       30.97017104      23.77370411      23.69907627        3
C       29.50403220      29.03126620      27.53760027        4
C       37.34447788      23.11620332      22.34760027        4
H       30.48586820      29.06955930      27.54590427        5
H       36.36264188      23.07791022      22.35590427        5
C       37.70144730      22.24442409      27.12032427        6
C       29.14706278      29.90304544      21.93032427        6
H       36.74316098      22.14339546      26.93867427        7
H       30.10534910      30.00407406      21.74867427        7
C       30.05364110      23.29544765      28.17700827        8
C       36.79486898      28.85202187      22.98700827        8
H       31.00269609      23.48365420      28.32440427        9
H       35.84581399      28.66381532      23.13440427        9
C       37.11973072      24.59904278      27.86768427       10
C       29.72877936      27.54842674      22.67768427       10
H       36.20570373      24.41083623      27.61026027       11
H       30.64280635      27.73663329      22.42026027       11
H       37.10496950      25.15470020      28.66175427       12
H       29.74354058      26.99276932      23.47175427       12
O       29.83307791      27.58916409      29.45271027       13
O       37.01543217      24.55830543      24.26271027       13
O       36.88250495      28.02097998      26.59198227       14
O       29.96600513      24.12648955      21.40198227       14
O       30.53448387      22.70068238      25.90171227       15
O       36.31402621      29.44678714      20.71171227       15
O       37.25548250      22.80659948      29.40081027       16
O       29.59302758      29.34087004      24.21081027       16
O       29.99662956      25.28343022      26.81930427       17
O       36.85188052      26.86403930      21.62930427       17
C       33.72322409      25.70709863      22.23445827       18
C       33.12528599      26.44037089      27.42445827       18
H       34.68771465      25.76087193      22.39742427       19
H       32.16079543      26.38659759      27.58742427       19
C       33.40010130      24.58926581      21.24939627       20
C       33.44840878      27.55820371      26.43939627       20
H       32.42275918      24.49149618      21.20580027       21
H       34.42575090      27.65597334      26.39580027       21
C       33.90269716      24.95753144      19.86989427       22
C       32.94581292      27.18993809      25.05989427       22
H       34.87664503      25.05774531      19.89895827       23
H       31.97186505      27.08972421      25.08895827       23
C       33.25982030      26.28556897      19.46507427       24
C       33.58868978      25.86190055      24.65507427       24
H       32.29113413      26.18698459      19.37580627       25
H       34.55737595      25.96048493      24.56580627       25
C       33.59615293      27.35614646      20.51656827       26
C       33.25235715      24.79132306      25.70656827       26
H       34.55298838      27.56472168      20.49788427       27
H       32.29552170      24.58274784      25.68788427       27
C       32.75594372      28.64018766      20.24357427       28
C       34.09256636      23.50728186      25.43357427       28
H       31.86692966      28.39006035      19.95501027       29
H       34.98158042      23.75740918      25.14501027       29
H       32.67462135      29.15184875      21.06463227       30
H       34.17388873      22.99562078      26.25463227       30
O       33.95466067      23.35247994      21.69158427       31
O       32.89384941      28.79498958      26.88158427       31
O       33.56505485      23.89836040      29.37174627       32
O       33.28345523      28.24910912      24.18174627       32
O       33.83419491      26.77441714      28.61919627       33
O       33.01431517      25.37305238      23.42919627       33
O       33.20739762      26.94551400      21.81510627       34
O       33.64111246      25.20195552      27.00510627       34
O       33.36389021      29.44678714      19.25228427       35
O       33.48461987      22.70068238      24.44228427       35
C       29.21277666      29.80527580      29.90527827        0
C       37.63573342      22.34219372      35.09527827        0
H       30.15784609      29.99429709      30.07654827        1
H       36.69066399      22.15317243      35.26654827        1
C       36.81825623      28.64833513      39.30021627        2
C       30.03025385      23.49913439      34.11021627        2
H       35.87833904      28.37376541      39.26907627        3
H       30.97017104      23.77370411      34.07907627        3
C       29.50403220      29.03126620      37.91760027        4
C       37.34447788      23.11620332      32.72760027        4
H       30.48586820      29.06955930      37.92590427        5
H       36.36264188      23.07791022      32.73590427        5
C       37.70144730      22.24442409      37.50032427        6
C       29.14706278      29.90304544      32.31032427        6
H       36.74316098      22.14339546      37.31867427        7
H       30.10534910      30.00407406      32.12867427        7
C       30.05364110      23.29544765      38.55700827        8
C       36.79486898      28.85202187      33.36700827        8
H       31.00269609      23.48365420      38.70440427        9
H       35.84581399      28.66381532      33.51440427        9
C       37.11973072      24.59904278      38.24768427       10
C       29.72877936      27.54842674      33.05768427       10
H       36.20570373      24.41083623      37.99026027       11
H       30.64280635      27.73663329      32.80026027       11
H       37.10496950      25.15470020      39.04175427       12
H       29.74354058      26.99276932      33.85175427       12
O       29.83307791      27.58916409      39.83271027       13
O       37.01543217      24.55830543      34.64271027       13
O       36.88250495      28.02097998      36.97198227       14
O       29.96600513      24.12648955      31.78198227       14
O       30.53448387      22.70068238      36.28171227       15
O       36.31402621      29.44678714      31.09171227       15
O       37.25548250      22.80659948      39.78081027       16
O       29.59302758      29.34087004      34.59081027       16
O       29.99662956      25.28343022      37.19930427       17
O       36.85188052      26.86403930      32.00930427       17
C       33.72322409      25.70709863      32.61445827       18
C       33.12528599      26.44037089      37.80445827       18
H       34.68771465      25.76087193      32.77742427       19
H       32.16079543      26.38659759      37.96742427       19
C       33.40010130      24.58926581      31.62939627       20
C       33.44840878      27.55820371      36.81939627       20
H       32.42275918      24.49149618      31.58580027       21
H       34.42575090      27.65597334      36.77580027       21
C       33.90269716      24.95753144      30.24989427       22
C       32.94581292      27.18993809      35.43989427       22
H       34.87664503      25.05774531      30.27895827       23
H       31.97186505      27.08972421      35.46895827       23
C       33.25982030      26.28556897      29.84507427       24
C       33.58868978      25.86190055      35.03507427       24
H       32.29113413      26.18698459      29.75580627       25
H       34.55737595      25.96048493      34.94580627       25
C       33.59615293      27.35614646      30.89656827       26
C       33.25235715      24.79132306      36.08656827       26
H       34.55298838      27.56472168      30.87788427       27
H       32.29552170      24.58274784      36.06788427       27
C       32.75594372      28.64018766      30.62357427       28
C       34.09256636      23.50728186      35.81357427       28
H       31.86692966      28.39006035      30.33501027       29
H       34.98158042      23.75740918      35.52501027       29
H       32.67462135      29.15184875      31.44463227       30
H       34.17388873      22.99562078      36.63463227       30
O       33.95466067      23.35247994      32.07158427       31
O       32.89384941      28.79498958      37.26158427       31
O       33.56505485      23.89836040      39.75174627       32
O       33.28345523      28.24910912      34.56174627       32
O       33.83419491      26.77441714      38.99919627       33
O       33.01431517      25.37305238      33.80919627       33
O       33.20739762      26.94551400      32.19510627       34
O       33.64111246      25.20195552      37.38510627       34
O       33.36389021      29.44678714      29.63228427       35
O       33.48461987      22.70068238      34.82228427       35
C       29.21277666      29.80527580      40.28527827        0
C       37.63573342      22.34219372      45.47527827        0
H       30.15784609      29.99429709      40.45654827        1
H       36.69066399      22.15317243      45.64654827        1
C       36.81825623      28.64833513      49.68021627        2
C       30.03025385      23.49913439      44.49021627        2
H       35.87833904      28.37376541      49.64907627        3
H       30.97017104      23.77370411      44.45907627        3
C       29.50403220      29.03126620      48.29760027        4
C       37.34447788      23.11620332      43.10760027        4
H       30.48586820      29.06955930      48.30590427        5
H       36.36264188      23.07791022      43.11590427        5
C       37.70144730      22.24442409      47.88032427        6
C       29.14706278      29.90304544      42.69032427        6
H       36.74316098      22.14339546      47.69867427        7
H       30.10534910      30.00407406      42.50867427        7
C       30.05364110      23.29544765      48.93700827        8
C       36.79486898      28.85202187      43.74700827        8
H       31.00269609      23.48365420      49.08440427        9
H       35.84581399      28.66381532      43.89440427        9
C       37.11973072      24.59904278      48.62768427       10
C       29.72877936      27.54842674      43.43768427       10
H       36.20570373      24.41083623      48.37026027       11
H       30.64280635      27.73663329      43.18026027       11
H       37.10496950      25.15470020      49.42175427       12
H       29.74354058      26.99276932      44.23175427       12
O       29.83307791      27.58916409      50.21271027       13
O       37.01543217      24.55830543      45.02271027       13
O       36.88250495      28.02097998      47.35198227       14
O       29.96600513      24.12648955      42.16198227       14
O       30.53448387      22.70068238      46.66171227       15
O       36.31402621      29.44678714      41.47171227       15
O       37.25548250      22.80659948      50.16081027       16
O       29.59302758      29.34087004      44.97081027       16
O       29.99662956      25.28343022      47.57930427       17
O       36.85188052      26.86403930      42.38930427       17
C       33.72322409      25.70709863      42.99445827       18
C       33.12528599      26.44037089      48.18445827       18
H       34.68771465      25.76087193      43.15742427       19
H       32.16079543      26.38659759      48.34742427       19
C       33.40010130      24.58926581      42.00939627       20
C       33.44840878      27.55820371      47.19939627       20
H       32.42275918      24.49149618      41.96580027       21
H       34.42575090      27.65597334      47.15580027       21
C       33.90269716      24.95753144      40.62989427       22
C       32.94581292      27.18993809      45.81989427       22
H       34.87664503      25.05774531      40.65895827       23
H       31.97186505      27.08972421      45.84895827       23
C       33.25982030      26.28556897      40.22507427       24
C       33.58868978      25.86190055      45.41507427       24
H       32.29113413      26.18698459      40.13580627       25
H       34.55737595      25.96048493      45.32580627       25
C       33.59615293      27.35614646      41.27656827       26
C       33.25235715      24.79132306      46.46656827       26
H       34.55298838      27.56472168      41.25788427       27
H       32.29552170      24.58274784      46.44788427       27
C       32.75594372      28.64018766      41.00357427       28
C       34.09256636      23.50728186      46.19357427       28
H       31.86692966      28.39006035      40.71501027       29
H       34.98158042      23.75740918      45.90501027       29
H       32.67462135      29.15184875      41.82463227       30
H       34.17388873      22.99562078      47.01463227       30
O       33.95466067      23.35247994      42.45158427       31
O       32.89384941      28.79498958      47.64158427       31
O       33.56505485      23.89836040      50.13174627       32
O       33.28345523      28.24910912      44.94174627       32
O       33.83419491      26.77441714      49.37919627       33
O       33.01431517      25.37305238      44.18919627       33
O       33.20739762      26.94551400      42.57510627       34
O       33.64111246      25.20195552      47.76510627       34
O       33.36389021      29.44678714      40.01228427       35
O       33.48461987      22.70068238      45.20228427       35
C       29.21277666      29.80527580      50.66527827        0
C       37.63573342      22.34219372      55.85527827        0
H       30.15784609      29.99429709      50.83654827        1
H       36.69066399      22.15317243      56.02654827        1
C       36.81825623      28.64833513      60.06021627        2
C       30.03025385      23.49913439      54.87021627        2
H       35.87833904      28.37376541      60.02907627        3
H       30.97017104      23.77370411      54.83907627        3
C       29.50403220      29.03126620      58.67760027        4
C       37.34447788      23.11620332      53.48760027        4
H       30.48586820      29.06955930      58.68590427        5
H       36.36264188      23.07791022      53.49590427        5
C       37.70144730      22.24442409      58.26032427        6
C       29.14706278      29.90304544      53.07032427        6
H       36.74316098      22.14339546      58.07867427        7
H       30.10534910      30.00407406      52.88867427        7
C       30.05364110      23.29544765      59.31700827        8
C       36.79486898      28.85202187      54.12700827        8
H       31.00269609      23.48365420      59.46440427        9
H       35.84581399      28.66381532      54.27440427        9
C       37.11973072      24.59904278      59.00768427       10
C       29.72877936      27.54842674      53.81768427       10
H       36.20570373      24.41083623      58.75026027       11
H       30.64280635      27.73663329      53.56026027       11
H       37.10496950      25.15470020      59.80175427       12
H       29.74354058      26.99276932      54.61175427       12
O       29.83307791      27.58916409      60.59271027       13
O       37.01543217      24.55830543      55.40271027       13
O       36.88250495      28.02097998      57.73198227       14
O       29.96600513      24.12648955      52.54198227       14
O       30.53448387      22.70068238      57.04171227       15
O       36.31402621      29.44678714      51.85171227       15
O       37.25548250      22.80659948      60.54081027       16
O       29.59302758      29.34087004      55.35081027       16
O       29.99662956      25.28343022      57.95930427       17
O       36.85188052      26.86403930      52.76930427       17
C       33.72322409      25.70709863      53.37445827       18
C       33.12528599      26.44037089      58.56445827       18
H       34.68771465      25.76087193      53.53742427       19
H       32.16079543      26.38659759      58.72742427       19
C       33.40010130      24.58926581      52.38939627       20
C       33.44840878      27.55820371      57.57939627       20
H       32.42275918      24.49149618      52.34580027       21
H       34.42575090      27.65597334      57.53580027       21
C       33.90269716      24.95753144      51.00989427       22
C       32.94581292      27.18993809      56.19989427       22
H       34.87664503      25.05774531      51.03895827       23
H       31.97186505      27.08972421      56.22895827       23
C       33.25982030      26.28556897      50.60507427       24
C       33.58868978      25.86190055      55.79507427       24
H       32.29113413      26.18698459      50.51580627       25
H       34.55737595      25.96048493      55.70580627       25
C       33.59615293      27.35614646      51.65656827       26
C       33.25235715      24.79132306      56.84656827       26
H       34.55298838      27.56472168      51.63788427       27
H       32.29552170      24.58274784      56.82788427       27
C       32.75594372      28.64018766      51.38357427       28
C       34.09256636      23.50728186      56.57357427       28
H       31.86692966      28.39006035      51.09501027       29
H       34.98158042      23.75740918      56.28501027       29
H       32.67462135      29.15184875      52.20463227       30
H       34.17388873      22.99562078      57.39463227       30
O       33.95466067      23.35247994      52.83158427       31
O       32.89384941      28.79498958      58.02158427       31
O       33.56505485      23.89836040      60.51174627       32
O       33.28345523      28.24910912      55.32174627       32
O       33.83419491      26.77441714      59.75919627       33
O       33.01431517      25.37305238      54.56919627       33
O       33.20739762      26.94551400      52.95510627       34
O       33.64111246      25.20195552      58.14510627       34
O       33.36389021      29.44678714      50.39228427       35
O       33.48461987      22.70068238      55.58228427       35
C       29.21277666      29.80527580      61.04527827        0
C       37.63573342      22.34219372      66.23527827        0
H       30.15784609      29.99429709      61.21654827        1
H       36.69066399      22.15317243      66.40654827        1
C       36.81825623      28.64833513      70.44021627        2
C       30.03025385      23.49913439      65.25021627        2
H       35.87833904      28.37376541      70.40907627        3
H       30.97017104      23.77370411      65.21907627        3
C       29.50403220      29.03126620      69.05760027        4
C       37.34447788      23.11620332      63.86760027        4
H       30.48586820      29.06955930      69.06590427        5
H       36.36264188      23.07791022      63.87590427        5
C       37.70144730      22.24442409      68.64032427        6
C       29.14706278      29.90304544      63.45032427        6
H       36.74316098      22.14339546      68.45867427        7
H       30.10534910      30.00407406      63.26867427        7
C       30.05364110      23.29544765      69.69700827        8
C       36.79486898      28.85202187      64.50700827        8
H       31.00269609      23.48365420      69.84440427        9
H       35.84581399      28.66381532      64.65440427        9
C       37.11973072      24.59904278      69.38768427       10
C       29.72877936      27.54842674      64.19768427       10
H       36.20570373      24.41083623      69.13026027       11
H       30.64280635      27.73663329      63.94026027       11
H       37.10496950      25.15470020      70.18175427       12
H       29.74354058      26.99276932      64.99175427       12
O       29.83307791      27.58916409      70.97271027       13
O       37.01543217      24.55830543      65.78271027       13
O       36.88250495      28.02097998      68.11198227       14
O       29.96600513      24.12648955      62.92198227       14
O       30.53448387      22.70068238      67.42171227       15
O       36.31402621      29.44678714      62.23171227       15
O       37.25548250      22.80659948      70.92081027       16
O       29.59302758      29.34087004      65.73081027       16
O       29.99662956      25.28343022      68.33930427       17
O       36.85188052      26.86403930      63.14930427       17
C       33.72322409      25.70709863      63.75445827       18
C       33.12528599      26.44037089      68.94445827       18
H       34.68771465      25.76087193      63.91742427       19
H       32.16079543      26.38659759      69.10742427       19
C       33.40010130      24.58926581      62.76939627       20
C       33.44840878      27.55820371      67.95939627       20
H       32.42275918      24.49149618      62.72580027       21
H       34.42575090      27.65597334      67.91580027       21
C       33.90269716      24.95753144      61.38989427       22
C       32.94581292      27.18993809      66.57989427       22
H       34.87664503      25.05774531      61.41895827       23
H       31.97186505      27.08972421      66.60895827       23
C       33.25982030      26.28556897      60.98507427       24
C       33.58868978      25.86190055      66.17507427       24
H       32.29113413      26.18698459      60.89580627       25
H       34.55737595      25.96048493      66.08580627       25
C       33.59615293      27.35614646      62.03656827       26
C       33.25235715      24.79132306      67.22656827       26
H       34.55298838      27.56472168      62.01788427       27
H       32.29552170      24.58274784      67.20788427       27
C       32.75594372      28.64018766      61.76357427       28
C       34.09256636      23.50728186      66.95357427       28
H       31.86692966      28.39006035      61.47501027       29
H       34.98158042      23.75740918      66.66501027       29
H       32.67462135      29.15184875      62.58463227       30
H       34.17388873      22.99562078      67.77463227       30
O       33.95466067      23.35247994      63.21158427       31
O       32.89384941      28.79498958      68.40158427       31
O       33.56505485      23.89836040      70.89174627       32
O       33.28345523      28.24910912      65.70174627       32
O       33.83419491      26.77441714      70.13919627       33
O       33.01431517      25.37305238      64.94919627       33
O       33.20739762      26.94551400      63.33510627       34
O       33.64111246      25.20195552      68.52510627       34
O       33.36389021      29.44678714      60.77228427       35
O       33.48461987      22.70068238      65.96228427       35
Mg      22.63075000      35.63075000       9.47025000        0
O       24.73625000      35.63075000       9.47025000        0
Mg      22.63075000      37.73625000      11.57575000        0
O       24.73625000      37.73625000      11.57575000        0
Mg      24.73625000      35.63075000      11.57575000        0
O       22.63075000      35.63075000      11.57575000        0
Mg      24.73625000      37.73625000       9.47025000        0
O       22.63075000      37.73625000       9.47025000        0
Mg      22.63075000      35.63075000      13.68125000        0
O       24.73625000      35.63075000      13.68125000        0
Mg      22.63075000      37.73625000      15.78675000        0
O       24.73625000      37.73625000      15.78675000        0
Mg      24.73625000      35.63075000      15.78675000        0
O       22.63075000      35.63075000      15.78675000        0
Mg      24.73625000      37.73625000      13.68125000        0
O       22.63075000      37.73625000      13.68125000        0
Mg      22.63075000      35.63075000      17.89225000        0
O       24.73625000      35.63075000      17.89225000        0
Mg      22.63075000      37.73625000      19.99775000        0
O       24.73625000      37.73625000      19.99775000        0
Mg      24.73625000      35.63075000      19.99775000        0
O       22.63075000      35.63075000      19.99775000        0
Mg      24.73625000      37.73625000      17.89225000        0
O       22.63075000      37.73625000      17.89225000        0
Mg      22.63075000      35.63075000      22.10325000        0
O       24.73625000      35.63075000      22.10325000        0
Mg      22.63075000      37.73625000      24.20875000        0
O       24.73625000      37.73625000      24.20875000        0
Mg      24.73625000      35.63075000      24.20875000        0
O       22.63075000      35.63075000      24.20875000        0
Mg      24.73625000      37.73625000      22.10325000        0
O       22.63075000      37.73625000      22.10325000        0
Mg      22.63075000      35.63075000      26.31425000        0
O       24.73625000      35.63075000      26.31425000        0
Mg      22.63075000      37.73625000      28.41975000        0
O       24.73625000      37.73625000      28.41975000        0
Mg      24.73625000      35.63075000      28.41975000        0
O       22.63075000      35.63075000      28.41975000        0
Mg      24.73625000      37.73625000      26.31425000        0
O       22.63075000      37.73625000      26.31425000        0
Mg      22.63075000      35.63075000      30.52525000        0
O       24.73625000      35.63075000      30.52525000        0
Mg      22.63075000      37.73625000      32.63075000        0
O       24.73625000      37.73625000      32.63075000        0
Mg      24.73625000      35.63075000      32.63075000        0
O       22.63075000      35.63075000      32.63075000        0
Mg      24.73625000      37.73625000      30.52525000        0
O       22.63075000      37.73625000      30.52525000        0
Mg      22.63075000      35.63075000      34.73625000        0
O       24.73625000      35.63075000      34.73625000        0
Mg      22.63075000      37.73625000      36.84175000        0
O       24.73625000      37.73625000      36.84175000        0
Mg      24.73625000      35.63075000      36.84175000        0
O       22.63075000      35.63075000      36.84175000        0
Mg      24.73625000      37.73625000      34.73625000        0
O       22.63075000      37.73625000      34.73625000        0
Mg      22.63075000      35.63075000      38.94725000        0
O       24.73625000      35.63075000      38.94725000        0
Mg      22.63075000      37.73625000      41.05275000        0
O       24.73625000      37.73625000      41.05275000        0
Mg      24.73625000      35.63075000      41.05275000        0
O       22.63075000      35.63075000      41.05275000        0
Mg      24.73625000      37.73625000      38.94725000        0
O       22.63075000      37.73625000      38.94725000        0
Mg      22.63075000      35.63075000      43.15825000        0
O       24.73625000      35.63075000      43.15825000        0
Mg      22.63075000      37.73625000      45.26375000        0
O       24.73625000      37.73625000      45.26375000        0
Mg      24.73625000      35.63075000      45.26375000        0
O       22.63075000      35.63075000      45.26375000        0
Mg      24.73625000      37.73625000      43.15825000        0
O       22.63075000      37.73625000      43.15825000        0
Mg      22.63075000      35.63075000      47.36925000        0
O       24.73625000      35.63075000      47.36925000        0
Mg      22.63075000      37.73625000      49.47475000        0
O       24.73625000      37.73625000      49.47475000        0
Mg      24.73625000      35.63075000      49.47475000        0
O       22.63075000      35.63075000      49.47475000        0
Mg      24.73625000      37.73625000      47.36925000        0
O       22.63075000      37.73625000      47.36925000        0
Mg      22.63075000      35.63075000      51.58025000        0
O       24.73625000      35.63075000      51.58025000        0
Mg      22.63075000      37.73625000      53.68575000        0
O       24.73625000      37.73625000      53.68575000        0
Mg      24.73625000      35.63075000      53.68575000        0
O       22.63075000      35.63075000      53.68575000        0
Mg      24.73625000      37.73625000      51.58025000        0
O       22.63075000      37.73625000      51.58025000        0
Mg      22.63075000      35.63075000      55.79125000        0
O       24.73625000      35.63075000      55.79125000        0
Mg      22.63075000      37.73625000      57.89675000        0
O       24.73625000      37.73625000      57.89675000        0
Mg      24.73625000      35.63075000      57.89675000        0
O       22.63075000      35.63075000      57.89675000        0
Mg      24.73625000      37.73625000      55.79125000        0
O       22.63075000      37.73625000      55.79125000        0
Mg      22.63075000      35.63075000      60.00225000        0
O       24.73625000      35.63075000      60.00225000        0
Mg      22.63075000      37.73625000      62.10775000        0
O       24.73625000      37.73625000      62.10775000        0
Mg      24.73625000      35.63075000      62.10775000        0
O       22.63075000      35.63075000      62.10775000        0
Mg      24.73625000      37.73625000      60.00225000        0
O       22.63075000      37.73625000      60.00225000        0
Mg      22.63075000      35.63075000      64.21325000        0
O       24.73625000      35.63075000      64.21325000        0
Mg      22.63075000      37.73625000      66.31875000        0
O       24.73625000      37.73625000      66.31875000        0
Mg      24.73625000      35.63075000      66.31875000        0
O       22.63075000      35.63075000      66.31875000        0
Mg      24.73625000      37.73625000      64.21325000        0
O       22.63075000      37.73625000      64.21325000        0
Mg      22.63075000      35.63075000      68.42425000        0
O       24.73625000      35.63075000      68.42425000        0
Mg      22.63075000      37.73625000      70.52975000        0
O       24.73625000      37.73625000      70.52975000        0
Mg      24.73625000      35.63075000      70.52975000        0
O       22.63075000      35.63075000      70.52975000        0
Mg      24.73625000      37.73625000      68.42425000        0
O       22.63075000      37.73625000      68.42425000        0
Mg      22.63075000      39.84175000       9.47025000        0
O       24.73625000      39.84175000       9.47025000        0
Mg      22.63075000      41.94725000      11.57575000        0
O       24.73625000      41.94725000      11.57575000        0
Mg      24.73625000      39.84175000      11.57575000        0
O       22.63075000      39.84175000      11.57575000        0
Mg      24.73625000      41.94725000       9.47025000        0
O       22.63075000      41.94725000       9.47025000        0
Mg      22.63075000      39.84175000      13.68125000        0
O       24.73625000      39.84175000      13.68125000        0
Mg      22.63075000      41.94725000      15.78675000        0
O       24.73625000      41.94725000      15.78675000        0
Mg      24.73625000      39.84175000      15.78675000        0
O       22.63075000      39.84175000      15.78675000        0
Mg      24.73625000      41.94725000      13.68125000        0
O       22.63075000      41.94725000      13.68125000        0
Mg      22.63075000      39.84175000      17.89225000        0
O       24.73625000      39.84175000      17.89225000        0
Mg      22.63075000      41.94725000      19.99775000        0
O       24.73625000      41.94725000      19.99775000        0
Mg      24.73625000      39.84175000      19.99775000        0
O       22.63075000      39.84175000      19.99775000        0
Mg      24.73625000      41.94725000      17.89225000        0
O       22.63075000      41.94725000      17.89225000        0
Mg      22.63075000      39.84175000      22.10325000        0
O       24.73625000      39.84175000      22.10325000        0
Mg      22.63075000      41.94725000      24.20875000        0
O       24.73625000      41.94725000      24.20875000        0
Mg      24.73625000      39.84175000      24.20875000        0
O       22.63075000      39.84175000      24.20875000        0
Mg      24.73625000      41.94725000      22.10325000        0
O       22.63075000      41.94725000      22.10325000        0
Mg      22.63075000      39.84175000      26.31425000        0
O       24.73625000      39.84175000      26.31425000        0
Mg      22.63075000      41.94725000      28.41975000        0
O       24.73625000      41.94725000      28.41975000        0
Mg      24.73625000      39.84175000      28.41975000        0
O       22.63075000      39.84175000      28.41975000        0
Mg      24.73625000      41.94725000      26.31425000        0
O       22.63075000      41.94725000      26.31425000        0
Mg      22.63075000      39.84175000      30.52525000        0
O       24.73625000      39.84175000      30.52525000        0
Mg      22.63075000      41.94725000      32.63075000        0
O       24.73625000      41.94725000      32.63075000        0
Mg      24.73625000      39.84175000      32.63075000        0
O       22.63075000      39.84175000      32.63075000        0
Mg      24.73625000      41.94725000      30.52525000        0
O       22.63075000      41.94725000      30.52525000        0
Mg      22.63075000      39.84175000      34.73625000        0
O       24.73625000      39.84175000      34.73625000        0
Mg      22.63075000      41.94725000      36.84175000        0
O       24.73625000      41.94725000      36.84175000        0
Mg      24.73625000      39.84175000      36.84175000        0
O       22.63075000      39.84175000      36.84175000        0
Mg      24.73625000      41.94725000      34.73625000        0
O       22.63075000      41.94725000      34.73625000        0
Mg      22.63075000      39.84175000      38.94725000        0
O       24.73625000      39.84175000      38.94725000        0
Mg      22.63075000      41.94725000      41.05275000        0
O       24.73625000      41.94725000      41.05275000        0
Mg      24.73625000      39.84175000      41.05275000        0
O       22.63075000      39.84175000      41.05275000        0
Mg      24.73625000      41.94725000      38.94725000        0
O       22.63075000      41.94725000      38.94725000        0
Mg      22.63075000      39.84175000      43.15825000        0
O       24.73625000      39.84175000      43.15825000        0
Mg      22.63075000      41.94725000      45.26375000        0
O       24.73625000      41.94725000      45.26375000        0
Mg      24.73625000      39.84175000      45.26375000        0
O       22.63075000      39.84175000      45.26375000        0
Mg      24.73625000      41.94725000      43.15825000        0
O       22.63075000      41.94725000      43.15825000        0
Mg      22.63075000      39.84175000      47.36925000        0
O       24.73625000      39.84175000      47.36925000        0
Mg      22.63075000      41.94725000      49.47475000        0
O       24.73625000      41.94725000      49.47475000        0
Mg      24.73625000      39.84175000      49.47475000        0
O       22.63075000      39.84175000      49.47475000        0
Mg      24.73625000      41.94725000      47.36925000        0
O       22.63075000      41.94725000      47.36925000        0
Mg      22.63075000      39.84175000      51.58025000        0
O       24.73625000      39.84175000      51.58025000        0
Mg      22.63075000      41.94725000      53.68575000        0
O       24.73625000      41.94725000      53.68575000        0
Mg      24.73625000      39.84175000      53.68575000        0
O       22.63075000      39.84175000      53.68575000        0
Mg      24.73625000      41.94725000      51.58025000        0
O       22.63075000      41.94725000      51.58025000        0
Mg      22.63075000      39.84175000      55.79125000        0
O       24.73625000      39.84175000      55.79125000        0
Mg      22.63075000      41.94725000      57.89675000        0
O       24.73625000      41.94725000      57.89675000        0
Mg      24.73625000      39.84175000      57.89675000        0
O       22.63075000      39.84175000      57.89675000        0
Mg      24.73625000      41.94725000      55.79125000        0
O       22.63075000      41.94725000      55.79125000        0
Mg      22.63075000      39.84175000      60.00225000        0
O       24.73625000      39.84175000      60.00225000        0
Mg      22.63075000      41.94725000      62.10775000        0
O       24.73625000      41.94725000      62.10775000        0
Mg      24.73625000      39.84175000      62.10775000        0
O       22.63075000      39.84175000      62.10775000        0
Mg      24.73625000      41.94725000      60.00225000        0
O       22.63075000      41.94725000      60.00225000        0
Mg      22.63075000      39.84175000      64.21325000        0
O       24.73625000      39.84175000      64.21325000        0
Mg      22.63075000      41.94725000      66.31875000        0
O       24.73625000      41.94725000      66.31875000        0
Mg      24.73625000      39.84175000      66.31875000        0
O       22.63075000      39.84175000      66.31875000        0
Mg      24.73625000      41.94725000      64.21325000        0
O       22.63075000      41.94725000      64.21325000        0
Mg      22.63075000      39.84175000      68.42425000        0
O       24.73625000      39.84175000      68.42425000        0
Mg      22.63075000      41.94725000      70.52975000        0
O       24.73625000      41.94725000      70.52975000        0
Mg      24.73625000      39.84175000      70.52975000        0
O       22.63075000      39.84175000      70.52975000        0
Mg      24.73625000      41.94725000      68.42425000        0
O       22.63075000      41.94725000      68.42425000        0
Mg      22.63075000      44.05275000       9.47025000        0
O       24.73625000      44.05275000       9.47025000        0
Mg      22.63075000      46.15825000      11.57575000        0
O       24.73625000      46.15825000      11.57575000        0
Mg      24.73625000      44.05275000      11.57575000        0
O       22.63075000      44.05275000      11.57575000        0
Mg      24.73625000      46.15825000       9.47025000        0
O       22.63075000      46.15825000       9.47025000        0
Mg      22.63075000      44.05275000      13.68125000        0
O       24.73625000      44.05275000      13.68125000        0
Mg      22.63075000      46.15825000      15.78675000        0
O       24.73625000      46.15825000      15.78675000        0
Mg      24.73625000      44.05275000      15.78675000        0
O       22.63075000      44.05275000      15.78675000        0
Mg      24.73625000      46.15825000      13.68125000        0
O       22.63075000      46.15825000      13.68125000        0
Mg      22.63075000      44.05275000      17.89225000        0
O       24.73625000      44.05275000      17.89225000        0
Mg      22.63075000      46.15825000      19.99775000        0
O       24.73625000      46.15825000      19.99775000        0
Mg      24.73625000      44.05275000      19.99775000        0
O       22.63075000      44.05275000      19.99775000        0
Mg      24.73625000      46.15825000      17.89225000        0
O       22.63075000      46.15825000      17.89225000        0
Mg      22.63075000      44.05275000      22.10325000        0
O       24.73625000      44.05275000      22.10325000        0
Mg      22.63075000      46.15825000      24.20875000        0
O       24.73625000      46.15825000      24.20875000        0
Mg      24.73625000      44.05275000      24.20875000        0
O       22.63075000      44.05275000      24.20875000        0
Mg      24.73625000      46.15825000      22.10325000        0
O       22.63075000      46.15825000      22.10325000        0
Mg      22.63075000      44.05275000      26.31425000        0
O       24.73625000      44.05275000      26.31425000        0
Mg      22.63075000      46.15825000      28.41975000        0
O       24.73625000      46.15825000      28.41975000        0
Mg      24.73625000      44.05275000      28.41975000        0
O       22.63075000      44.05275000      28.41975000        0
Mg      24.73625000      46.15825000      26.31425000        0
O       22.63075000      46.15825000      26.31425000        0
Mg      22.63075000      44.05275000      30.52525000        0
O       24.73625000      44.05275000      30.52525000        0
Mg      22.63075000      46.15825000      32.63075000        0
O       24.73625000      46.15825000      32.63075000        0
Mg      24.73625000      44.05275000      32.63075000        0
O       22.63075000      44.05275000      32.63075000        0
Mg      24.73625000      46.15825000      30.52525000        0
O       22.63075000      46.15825000      30.52525000        0
Mg      22.63075000      44.05275000      34.73625000        0
O       24.73625000      44.05275000      34.73625000        0
Mg      22.63075000      46.15825000      36.84175000        0
O       24.73625000      46.15825000      36.84175000        0
Mg      24.73625000      44.05275000      36.84175000        0
O       22.63075000      44.05275000      36.84175000        0
Mg      24.73625000      46.15825000      34.73625000        0
O       22.63075000      46.15825000      34.73625000        0
Mg      22.63075000      44.05275000      38.94725000        0
O       24.73625000      44.05275000      38.94725000        0
Mg      22.63075000      46.15825000      41.05275000        0
O       24.73625000      46.15825000      41.05275000        0
Mg      24.73625000      44.05275000      41.05275000        0
O       22.63075000      44.05275000      41.05275000        0
Mg      24.73625000      46.15825000      38.94725000        0
O       22.63075000      46.15825000      38.94725000        0
Mg      22.63075000      44.05275000      43.15825000        0
O       24.73625000      44.05275000      43.15825000        0
Mg      22.63075000      46.15825000      45.26375000        0
O       24.73625000      46.15825000      45.26375000        0
Mg      24.73625000      44.05275000      45.26375000        0
O       22.63075000      44.05275000      45.26375000        0
Mg      24.73625000      46.15825000      43.15825000        0
O       22.63075000      46.15825000      43.15825000        0
Mg      22.63075000      44.05275000      47.36925000        0
O       24.73625000      44.05275000      47.36925000        0
Mg      22.63075000      46.15825000      49.47475000        0
O       24.73625000      46.15825000      49.47475000        0
Mg      24.73625000      44.05275000      49.47475000        0
O       22.63075000      44.05275000      49.47475000        0
Mg      24.73625000      46.15825000      47.36925000        0
O       22.63075000      46.15825000      47.36925000        0
Mg      22.63075000      44.05275000      51.58025000        0
O       24.73625000      44.05275000      51.58025000        0
Mg      22.63075000      46.15825000      53.68575000        0
O       24.73625000      46.15825000      53.68575000        0
Mg      24.73625000      44.05275000      53.68575000        0
O       22.63075000      44.05275000      53.68575000        0
Mg      24.73625000      46.15825000      51.58025000        0
O       22.63075000      46.15825000      51.58025000        0
Mg      22.63075000      44.05275000      55.79125000        0
O       24.73625000      44.05275000      55.79125000        0
Mg      22.63075000      46.15825000      57.89675000        0
O       24.73625000      46.15825000      57.89675000        0
Mg      24.73625000      44.05275000      57.89675000        0
O       22.63075000      44.05275000      57.89675000        0
Mg      24.73625000      46.15825000      55.79125000        0
O       22.63075000      46.15825000      55.79125000        0
Mg      22.63075000      44.05275000      60.00225000        0
O       24.73625000      44.05275000      60.00225000        0
Mg      22.63075000      46.15825000      62.10775000        0
O       24.73625000      46.15825000      62.10775000        0
Mg      24.73625000      44.05275000      62.10775000        0
O       22.63075000      44.05275000      62.10775000        0
Mg      24.73625000      46.15825000      60.00225000        0
O       22.63075000      46.15825000      60.00225000        0
Mg      22.63075000      44.05275000      64.21325000        0
O       24.73625000      44.05275000      64.21325000        0
Mg      22.63075000      46.15825000      66.31875000        0
O       24.73625000      46.15825000      66.31875000        0
Mg      24.73625000      44.05275000      66.31875000        0
O       22.63075000      44.05275000      66.31875000        0
Mg      24.73625000      46.15825000      64.21325000        0
O       22.63075000      46.15825000      64.21325000        0
Mg      22.63075000      44.05275000      68.42425000        0
O       24.73625000      44.05275000      68.42425000        0
Mg      22.63075000      46.15825000      70.52975000        0
O       24.73625000      46.15825000      70.52975000        0
Mg      24.73625000      44.05275000      70.52975000        0
O       22.63075000      44.05275000      70.52975000        0
Mg      24.73625000      46.15825000      68.42425000        0
O       22.63075000      46.15825000      68.42425000        0
Mg      22.63075000      48.26375000       9.47025000        0
O       24.73625000      48.26375000       9.47025000        0
Mg      22.63075000      50.36925000      11.57575000        0
O       24.73625000      50.36925000      11.57575000        0
Mg      24.73625000      48.26375000      11.57575000        0
O       22.63075000      48.26375000      11.57575000        0
Mg      24.73625000      50.36925000       9.47025000        0
O       22.63075000      50.36925000       9.47025000        0
Mg      22.63075000      48.26375000      13.68125000        0
O       24.73625000      48.26375000      13.68125000        0
Mg      22.63075000      50.36925000      15.78675000        0
O       24.73625000      50.36925000      15.78675000        0
Mg      24.73625000      48.26375000      15.78675000        0
O       22.63075000      48.26375000      15.78675000        0
Mg      24.73625000      50.36925000      13.68125000        0
O       22.63075000      50.36925000      13.68125000        0
Mg      22.63075000      48.26375000      17.89225000        0
O       24.73625000      48.26375000      17.89225000        0
Mg      22.63075000      50.36925000      19.99775000        0
O       24.73625000      50.36925000      19.99775000        0
Mg      24.73625000      48.26375000      19.99775000        0
O       22.63075000      48.26375000      19.99775000        0
Mg      24.73625000      50.36925000      17.89225000        0
O       22.63075000      50.36925000      17.89225000        0
Mg      22.63075000      48.26375000      22.10325000        0
O       24.73625000      48.26375000      22.10325000        0
Mg      22.63075000      50.36925000      24.20875000        0
O       24.73625000      50.36925000      24.20875000        0
Mg      24.73625000      48.26375000      24.20875000        0
O       22.63075000      48.26375000      24.20875000        0
Mg      24.73625000      50.36925000      22.10325000        0
O       22.63075000      50.36925000      22.10325000        0
Mg      22.63075000      48.26375000      26.31425000        0
O       24.73625000      48.26375000      26.31425000        0
Mg      22.63075000      50.36925000      28.41975000        0
O       24.73625000      50.36925000      28.41975000        0
Mg      24.73625000      48.26375000      28.41975000        0
O       22.63075000      48.26375000      28.41975000        0
Mg      24.73625000      50.36925000      26.31425000        0
O       22.63075000      50.36925000      26.31425000        0
Mg      22.63075000      48.26375000      30.52525000        0
O       24.73625000      48.26375000      30.52525000        0
Mg      22.63075000      50.36925000      32.63075000        0
O       24.73625000      50.36925000      32.63075000        0
Mg      24.73625000      48.26375000      32.63075000        0
O       22.63075000      48.26375000      32.63075000        0
Mg      24.73625000      50.36925000      30.52525000        0
O       22.63075000      50.36925000      30.52525000        0
Mg      22.63075000      48.26375000      34.73625000        0
O       24.73625000      48.26375000      34.73625000        0
Mg      22.63075000      50.36925000      36.84175000        0
O       24.73625000      50.36925000      36.84175000        0
Mg      24.73625000      48.26375000      36.84175000        0
O       22.63075000      48.26375000      36.84175000        0
Mg      24.73625000      50.36925000      34.73625000        0
O       22.63075000      50.36925000      34.73625000        0
Mg      22.63075000      48.26375000      38.94725000        0
O       24.73625000      48.26375000      38.94725000        0
Mg      22.63075000      50.36925000      41.05275000        0
O       24.73625000      50.36925000      41.05275000        0
Mg      24.73625000      48.26375000      41.05275000        0
O       22.63075000      48.26375000      41.05275000        0
Mg      24.73625000      50.36925000      38.94725000        0
O       22.63075000      50.36925000      38.94725000        0
Mg      22.63075000      48.26375000      43.15825000        0
O       24.73625000      48.26375000      43.15825000        0
Mg      22.63075000      50.36925000      45.26375000        0
O       24.73625000      50.36925000      45.26375000        0
Mg      24.73625000      48.26375000      45.26375000        0
O       22.63075000      48.26375000      45.26375000        0
Mg      24.73625000      50.36925000      43.15825000        0
O       22.63075000      50.36925000      43.15825000        0
Mg      22.63075000      48.26375000      47.36925000        0
O       24.73625000      48.26375000      47.36925000        0
Mg      22.63075000      50.36925000      49.47475000        0
O       24.73625000      50.36925000      49.47475000        0
Mg      24.73625000      48.26375000      49.47475000        0
O       22.63075000      48.26375000      49.47475000        0
Mg      24.73625000      50.36925000      47.36925000        0
O       22.63075000      50.36925000      47.36925000        0
Mg      22.63075000      48.26375000      51.58025000        0
O       24.73625000      48.26375000      51.58025000        0
Mg      22.63075000      50.36925000      53.68575000        0
O       24.73625000      50.36925000      53.68575000        0
Mg      24.73625000      48.26375000      53.68575000        0
O       22.63075000      48.26375000      53.68575000        0
Mg      24.73625000      50.36925000      51.58025000        0
O       22.63075000      50.36925000      51.58025000        0
Mg      22.63075000      48.26375000      55.79125000        0
O       24.73625000      48.26375000      55.79125000        0
Mg      22.63075000      50.36925000      57.89675000        0
O       24.73625000      50.36925000      57.89675000        0
Mg      24.73625000      48.26375000      57.89675000        0
O       22.63075000      48.26375000      57.89675000        0
Mg      24.73625000      50.36925000      55.79125000        0
O       22.63075000      50.36925000      55.79125000        0
Mg      22.63075000      48.26375000      60.00225000        0
O       24.73625000      48.26375000      60.00225000        0
Mg      22.63075000      50.36925000      62.10775000        0
O       24.73625000      50.36925000      62.10775000        0
Mg      24.73625000      48.26375000      62.10775000        0
O       22.63075000      48.26375000      62.10775000        0
Mg      24.73625000      50.36925000      60.00225000        0
O       22.63075000      50.36925000      60.00225000        0
Mg      22.63075000      48.26375000      64.21325000        0
O       24.73625000      48.26375000      64.21325000        0
Mg      22.63075000      50.36925000      66.31875000        0
O       24.73625000      50.36925000      66.31875000        0
Mg      24.73625000      48.26375000      66.31875000        0
O       22.63075000      48.26375000      66.31875000        0
Mg      24.73625000      50.36925000      64.21325000        0
O       22.63075000      50.36925000      64.21325000        0
Mg      22.63075000      48.26375000      68.42425000        0
O       24.73625000      48.26375000      68.42425000        0
Mg      22.63075000      50.36925000      70.52975000        0
O       24.73625000      50.36925000      70.52975000        0
Mg      24.73625000      48.26375000      70.52975000        0
O       22.63075000      48.26375000      70.52975000        0
Mg      24.73625000      50.36925000      68.42425000        0
O       22.63075000      50.36925000      68.42425000        0
Mg      26.84175000      35.63075000       9.47025000        0
O       28.94725000      35.63075000       9.47025000        0
Mg      26.84175000      37.73625000      11.57575000        0
O       28.94725000      37.73625000      11.57575000        0
Mg      28.94725000      35.63075000      11.57575000        0
O       26.84175000      35.63075000      11.57575000        0
Mg      28.94725000      37.73625000       9.47025000        0
O       26.84175000      37.73625000       9.47025000        0
Mg      26.84175000      35.63075000      13.68125000        0
O       28.94725000      35.63075000      13.68125000        0
Mg      26.84175000      37.73625000      15.78675000        0
O       28.94725000      37.73625000      15.78675000        0
Mg      28.94725000      35.63075000      15.78675000        0
O       26.84175000      35.63075000      15.78675000        0
Mg      28.94725000      37.73625000      13.68125000        0
O       26.84175000      37.73625000      13.68125000        0
Mg      26.84175000      35.63075000      17.89225000        0
O       28.94725000      35.63075000      17.89225000        0
Mg      26.84175000      37.73625000      19.99775000        0
O       28.94725000      37.73625000      19.99775000        0
Mg      28.94725000      35.63075000      19.99775000        0
O       26.84175000      35.63075000      19.99775000        0
Mg      28.94725000      37.73625000      17.89225000        0
O       26.84175000      37.73625000      17.89225000        0
Mg      26.84175000      35.63075000      22.10325000        0
O       28.94725000      35.63075000      22.10325000        0
Mg      26.84175000      37.73625000      24.20875000        0
O       28.94725000      37.73625000      24.20875000        0
Mg      28.94725000      35.63075000      24.20875000        0
O       26.84175000      35.63075000      24.20875000        0
Mg      28.94725000      37.73625000      22.10325000        0
O       26.84175000      37.73625000      22.10325000        0
Mg      26.84175000      35.63075000      26.31425000        0
O       28.94725000      35.63075000      26.31425000        0
Mg      26.84175000      37.73625000      28.41975000        0
O       28.94725000      37.73625000      28.41975000        0
Mg      28.94725000      35.63075000      28.41975000        0
O       26.84175000      35.63075000      28.41975000        0
Mg      28.94725000      37.73625000      26.31425000        0
O       26.84175000      37.73625000      26.31425000        0
Mg      26.84175000      35.63075000      30.52525000        0
O       28.94725000      35.63075000      30.52525000        0
Mg      26.84175000      37.73625000      32.63075000        0
O       28.94725000      37.73625000      32.63075000        0
Mg      28.94725000      35.63075000      32.63075000        0
O       26.84175000      35.63075000      32.63075000        0
Mg      28.94725000      37.73625000      30.52525000        0
O       26.84175000      37.73625000      30.52525000        0
Mg      26.84175000      35.63075000      34.73625000        0
O       28.94725000      35.63075000      34.73625000        0
Mg      26.84175000      37.73625000      36.84175000        0
O       28.94725000      37.73625000      36.84175000        0
Mg      28.94725000      35.63075000      36.84175000        0
O       26.84175000      35.63075000      36.84175000        0
Mg      28.94725000      37.73625000      34.73625000        0
O       26.84175000      37.73625000      34.73625000        0
Mg      26.84175000      35.63075000      38.94725000        0
O       28.94725000      35.63075000      38.94725000        0
Mg      26.84175000      37.73625000      41.05275000        0
O       28.94725000      37.73625000      41.05275000        0
Mg      28.94725000      35.63075000      41.05275000        0
O       26.84175000      35.63075000      41.05275000        0
Mg      28.94725000      37.73625000      38.94725000        0
O       26.84175000      37.73625000      38.94725000        0
Mg      26.84175000      35.63075000      43.15825000        0
O       28.94725000      35.63075000      43.15825000        0
Mg      26.84175000      37.73625000      45.26375000        0
O       28.94725000      37.73625000      45.26375000        0
Mg      28.94725000      35.63075000      45.26375000        0
O       26.84175000      35.63075000      45.26375000        0
Mg      28.94725000      37.73625000      43.15825000        0
O       26.84175000      37.73625000      43.15825000        0
Mg      26.84175000      35.63075000      47.36925000        0
O       28.94725000      35.63075000      47.36925000        0
Mg      26.84175000      37.73625000      49.47475000        0
O       28.94725000      37.73625000      49.47475000        0
Mg      28.94725000      35.63075000      49.47475000        0
O       26.84175000      35.63075000      49.47475000        0
Mg      28.94725000      37.73625000      47.36925000        0
O       26.84175000      37.73625000      47.36925000        0
Mg      26.84175000      35.63075000      51.58025000        0
O       28.94725000      35.63075000      51.58025000        0
Mg      26.84175000      37.73625000      53.68575000        0
O       28.94725000      37.73625000      53.68575000        0
Mg      28.94725000      35.63075000      53.68575000        0
O       26.84175000      35.63075000      53.68575000        0
Mg      28.94725000      37.73625000      51.58025000        0
O       26.84175000      37.73625000      51.58025000        0
Mg      26.84175000      35.63075000      55.79125000        0
O       28.94725000      35.63075000      55.79125000        0
Mg      26.84175000      37.73625000      57.89675000        0
O       28.94725000      37.73625000      57.89675000        0
Mg      28.94725000      35.63075000      57.89675000        0
O       26.84175000      35.63075000      57.89675000        0
Mg      28.94725000      37.73625000      55.79125000        0
O       26.84175000      37.73625000      55.79125000        0
Mg      26.84175000      35.63075000      60.00225000        0
O       28.94725000      35.63075000      60.00225000        0
Mg      26.84175000      37.73625000      62.10775000        0
O       28.94725000      37.73625000      62.10775000        0
Mg      28.94725000      35.63075000      62.10775000        0
O       26.84175000      35.63075000      62.10775000        0
Mg      28.94725000      37.73625000      60.00225000        0
O       26.84175000      37.73625000      60.00225000        0
Mg      26.84175000      35.63075000      64.21325000        0
O       28.94725000      35.63075000      64.21325000        0
Mg      26.84175000      37.73625000      66.31875000        0
O       28.94725000      37.73625000      66.31875000        0
Mg      28.94725000      35.63075000      66.31875000        0
O       26.84175000      35.63075000      66.31875000        0
Mg      28.94725000      37.73625000      64.21325000        0
O       26.84175000      37.73625000      64.21325000        0
Mg      26.84175000      35.63075000      68.42425000        0
O       28.94725000      35.63075000      68.42425000        0
Mg      26.84175000      37.73625000      70.52975000        0
O       28.94725000      37.73625000      70.52975000        0
Mg      28.94725000      35.63075000      70.52975000        0
O       26.84175000      35.63075000      70.52975000        0
Mg      28.94725000      37.73625000      68.42425000        0
O       26.84175000      37.73625000      68.42425000        0
Mg      26.84175000      39.84175000       9.47025000        0
O       28.94725000      39.84175000       9.47025000        0
Mg      26.84175000      41.94725000      11.57575000        0
O       28.94725000      41.94725000      11.57575000        0
Mg      28.94725000      39.84175000      11.57575000        0
O       26.84175000      39.84175000      11.57575000        0
Mg      28.94725000      41.94725000       9.47025000        0
O       26.84175000      41.94725000       9.47025000        0
Mg      26.84175000      39.84175000      13.68125000        0
O       28.94725000      39.84175000      13.68125000        0
Mg      26.84175000      41.94725000      15.78675000        0
O       28.94725000      41.94725000      15.78675000        0
Mg      28.94725000      39.84175000      15.78675000        0
O       26.84175000      39.84175000      15.78675000        0
Mg      28.94725000      41.94725000      13.68125000        0
O       26.84175000      41.94725000      13.68125000        0
Mg      26.84175000      39.84175000      17.89225000        0
O       28.94725000      39.84175000      17.89225000        0
Mg      26.84175000      41.94725000      19.99775000        0
O       28.94725000      41.94725000      19.99775000        0
Mg      28.94725000      39.84175000      19.99775000        0
O       26.84175000      39.84175000      19.99775000        0
Mg      28.94725000      41.94725000      17.89225000        0
O       26.84175000      41.94725000      17.89225000        0
Mg      26.84175000      39.84175000      22.10325000        0
O       28.94725000      39.84175000      22.10325000        0
Mg      26.84175000      41.94725000      24.20875000        0
O       28.94725000      41.94725000      24.20875000        0
Mg      28.94725000      39.84175000      24.20875000        0
O       26.84175000      39.84175000      24.20875000        0
Mg      28.94725000      41.94725000      22.10325000        0
O       26.84175000      41.94725000      22.10325000        0
Mg      26.84175000      39.84175000      26.31425000        0
O       28.94725000      39.84175000      26.31425000        0
Mg      26.84175000      41.94725000      28.41975000        0
O       28.94725000      41.94725000      28.41975000        0
Mg      28.94725000      39.84175000      28.41975000        0
O       26.84175000      39.84175000      28.41975000        0
Mg      28.94725000      41.94725000      26.31425000        0
O       26.84175000      41.94725000      26.31425000        0
Mg      26.84175000      39.84175000      30.52525000        0
O       28.94725000      39.84175000      30.52525000        0
Mg      26.84175000      41.94725000      32.63075000        0
O       28.94725000      41.94725000      32.63075000        0
Mg      28.94725000      39.84175000      32.63075000        0
O       26.84175000      39.84175000      32.63075000        0
Mg      28.94725000      41.94725000      30.52525000        0
O       26.84175000      41.94725000      30.52525000        0
Mg      26.84175000      39.84175000      34.73625000        0
O       28.94725000      39.84175000      34.73625000        0
Mg      26.84175000      41.94725000      36.84175000        0
O       28.94725000      41.94725000      36.84175000        0
Mg      28.94725000      39.84175000      36.84175000        0
O       26.84175000      39.84175000      36.84175000        0
Mg      28.94725000      41.94725000      34.73625000        0
O       26.84175000      41.94725000      34.73625000        0
Mg      26.84175000      39.84175000      38.94725000        0
O       28.94725000      39.84175000      38.94725000        0
Mg      26.84175000      41.94725000      41.05275000        0
O       28.94725000      41.94725000      41.05275000        0
Mg      28.94725000      39.84175000      41.05275000        0
O       26.84175000      39.84175000      41.05275000        0
Mg      28.94725000      41.94725000      38.94725000        0
O       26.84175000      41.94725000      38.94725000        0
Mg      26.84175000      39.84175000      43.15825000        0
O       28.94725000      39.84175000      43.15825000        0
Mg      26.84175000      41.94725000      45.26375000        0
O       28.94725000      41.94725000      45.26375000        0
Mg      28.94725000      39.84175000      45.26375000        0
O       26.84175000      39.84175000      45.26375000        0
Mg      28.94725000      41.94725000      43.15825000        0
O       26.84175000      41.94725000      43.15825000        0
Mg      26.84175000      39.84175000      47.36925000        0
O       28.94725000      39.84175000      47.36925000        0
Mg      26.84175000      41.94725000      49.47475000        0
O       28.94725000      41.94725000      49.47475000        0
Mg      28.94725000      39.84175000      49.47475000        0
O       26.84175000      39.84175000      49.47475000        0
Mg      28.94725000      41.94725000      47.36925000        0
O       26.84175000      41.94725000      47.36925000        0
Mg      26.84175000      39.84175000      51.58025000        0
O       28.94725000      39.84175000      51.58025000        0
Mg      26.84175000      41.94725000      53.68575000        0
O       28.94725000      41.94725000      53.68575000        0
Mg      28.94725000      39.84175000      53.68575000        0
O       26.84175000      39.84175000      53.68575000        0
Mg      28.94725000      41.94725000      51.58025000        0
O       26.84175000      41.94725000      51.58025000        0
Mg      26.84175000      39.84175000      55.79125000        0
O       28.94725000      39.84175000      55.79125000        0
Mg      26.84175000      41.94725000      57.89675000        0
O       28.94725000      41.94725000      57.89675000        0
Mg      28.94725000      39.84175000      57.89675000        0
O       26.84175000      39.84175000      57.89675000        0
Mg      28.94725000      41.94725000      55.79125000        0
O       26.84175000      41.94725000      55.79125000        0
Mg      26.84175000      39.84175000      60.00225000        0
O       28.94725000      39.84175000      60.00225000        0
Mg      26.84175000      41.94725000      62.10775000        0
O       28.94725000      41.94725000      62.10775000        0
Mg      28.94725000      39.84175000      62.10775000        0
O       26.84175000      39.84175000      62.10775000        0
Mg      28.94725000      41.94725000      60.00225000        0
O       26.84175000      41.94725000      60.00225000        0
Mg      26.84175000      39.84175000      64.21325000        0
O       28.94725000      39.84175000      64.21325000        0
Mg      26.84175000      41.94725000      66.31875000        0
O       28.94725000      41.94725000      66.31875000        0
Mg      28.94725000      39.84175000      66.31875000        0
O       26.84175000      39.84175000      66.31875000        0
Mg      28.94725000      41.94725000      64.21325000        0
O       26.84175000      41.94725000      64.21325000        0
Mg      26.84175000      39.84175000      68.42425000        0
O       28.94725000      39.84175000      68.42425000        0
Mg      26.84175000      41.94725000      70.52975000        0
O       28.94725000      41.94725000      70.52975000        0
Mg      28.94725000      39.84175000      70.52975000        0
O       26.84175000      39.84175000      70.52975000        0
Mg      28.94725000      41.94725000      68.42425000        0
O       26.84175000      41.94725000      68.42425000        0
Mg      26.84175000      44.05275000       9.47025000        0
O       28.94725000      44.05275000       9.47025000        0
Mg      26.84175000      46.15825000      11.57575000        0
O       28.94725000      46.15825000      11.57575000        0
Mg      28.94725000      44.05275000      11.57575000        0
O       26.84175000      44.05275000      11.57575000        0
Mg      28.94725000      46.15825000       9.47025000        0
O       26.84175000      46.15825000       9.47025000        0
Mg      26.84175000      44.05275000      13.68125000        0
O       28.94725000      44.05275000      13.68125000        0
Mg      26.84175000      46.15825000      15.78675000        0
O       28.94725000      46.15825000      15.78675000        0
Mg      28.94725000      44.05275000      15.78675000        0
O       26.84175000      44.05275000      15.78675000        0
Mg      28.94725000      46.15825000      13.68125000        0
O       26.84175000      46.15825000      13.68125000        0
Mg      26.84175000      44.05275000      17.89225000        0
O       28.94725000      44.05275000      17.89225000        0
Mg      26.84175000      46.15825000      19.99775000        0
O       28.94725000      46.15825000      19.99775000        0
Mg      28.94725000      44.05275000      19.99775000        0
O       26.84175000      44.05275000      19.99775000        0
Mg      28.94725000      46.15825000      17.89225000        0
O       26.84175000      46.15825000      17.89225000        0
Mg      26.84175000      44.05275000      22.10325000        0
O       28.94725000      44.05275000      22.10325000        0
Mg      26.84175000      46.15825000      24.20875000        0
O       28.94725000      46.15825000      24.20875000        0
Mg      28.94725000      44.05275000      24.20875000        0
O       26.84175000      44.05275000      24.20875000        0
Mg      28.94725000      46.15825000      22.10325000        0
O       26.84175000      46.15825000      22.10325000        0
Mg      26.84175000      44.05275000      26.31425000        0
O       28.94725000      44.05275000      26.31425000        0
Mg      26.84175000      46.15825000      28.41975000        0
O       28.94725000      46.15825000      28.41975000        0
Mg      28.94725000      44.05275000      28.41975000        0
O       26.84175000      44.05275000      28.41975000        0
Mg      28.94725000      46.15825000      26.31425000        0
O       26.84175000      46.15825000      26.31425000        0
Mg      26.84175000      44.05275000      30.52525000        0
O       28.94725000      44.05275000      30.52525000        0
Mg      26.84175000      46.15825000      32.63075000        0
O       28.94725000      46.15825000      32.63075000        0
Mg      28.94725000      44.05275000      32.63075000        0
O       26.84175000      44.05275000      32.63075000        0
Mg      28.94725000      46.15825000      30.52525000        0
O       26.84175000      46.15825000      30.52525000        0
Mg      26.84175000      44.05275000      34.73625000        0
O       28.94725000      44.05275000      34.73625000        0
Mg      26.84175000      46.15825000      36.84175000        0
O       28.94725000      46.15825000      36.84175000        0
Mg      28.94725000      44.05275000      36.84175000        0
O       26.84175000      44.05275000      36.84175000        0
Mg      28.94725000      46.15825000      34.73625000        0
O       26.84175000      46.15825000      34.73625000        0
Mg      26.84175000      44.05275000      38.94725000        0
O       28.94725000      44.05275000      38.94725000        0
Mg      26.84175000      46.15825000      41.05275000        0
O       28.94725000      46.15825000      41.05275000        0
Mg      28.94725000      44.05275000      41.05275000        0
O       26.84175000      44.05275000      41.05275000        0
Mg      28.94725000      46.15825000      38.94725000        0
O       26.84175000      46.15825000      38.94725000        0
Mg      26.84175000      44.05275000      43.15825000        0
O       28.94725000      44.05275000      43.15825000        0
Mg      26.84175000      46.15825000      45.26375000        0
O       28.94725000      46.15825000      45.26375000        0
Mg      28.94725000      44.05275000      45.26375000        0
O       26.84175000      44.05275000      45.26375000        0
Mg      28.94725000      46.15825000      43.15825000        0
O       26.84175000      46.15825000      43.15825000        0
Mg      26.84175000      44.05275000      47.36925000        0
O       28.94725000      44.05275000      47.36925000        0
Mg      26.84175000      46.15825000      49.47475000        0
O       28.94725000      46.15825000      49.47475000        0
Mg      28.94725000      44.05275000      49.47475000        0
O       26.84175000      44.05275000      49.47475000        0
Mg      28.94725000      46.15825000      47.36925000        0
O       26.84175000      46.15825000      47.36925000        0
Mg      26.84175000      44.05275000      51.58025000        0
O       28.94725000      44.05275000      51.58025000        0
Mg      26.84175000      46.15825000      53.68575000        0
O       28.94725000      46.15825000      53.68575000        0
Mg      28.94725000      44.05275000      53.68575000        0
O       26.84175000      44.05275000      53.68575000        0
Mg      28.94725000      46.15825000      51.58025000        0
O       26.84175000      46.15825000      51.58025000        0
Mg      26.84175000      44.05275000      55.79125000        0
O       28.94725000      44.05275000      55.79125000        0
Mg      26.84175000      46.15825000      57.89675000        0
O       28.94725000      46.15825000      57.89675000        0
Mg      28.94725000      44.05275000      57.89675000        0
O       26.84175000      44.05275000      57.89675000        0
Mg      28.94725000      46.15825000      55.79125000        0
O       26.84175000      46.15825000      55.79125000        0
Mg      26.84175000      44.05275000      60.00225000        0
O       28.94725000      44.05275000      60.00225000        0
Mg      26.84175000      46.15825000      62.10775000        0
O       28.94725000      46.15825000      62.10775000        0
Mg      28.94725000      44.05275000      62.10775000        0
O       26.84175000      44.05275000      62.10775000        0
Mg      28.94725000      46.15825000      60.00225000        0
O       26.84175000      46.15825000      60.00225000        0
Mg      26.84175000      44.05275000      64.21325000        0
O       28.94725000      44.05275000      64.21325000        0
Mg      26.84175000      46.15825000      66.31875000        0
O       28.94725000      46.15825000      66.31875000        0
Mg      28.94725000      44.05275000      66.31875000        0
O       26.84175000      44.05275000      66.31875000        0
Mg      28.94725000      46.15825000      64.21325000        0
O       26.84175000      46.15825000      64.21325000        0
Mg      26.84175000      44.05275000      68.42425000        0
O       28.94725000      44.05275000      68.42425000        0
Mg      26.84175000      46.15825000      70.52975000        0
O       28.94725000      46.15825000      70.52975000        0
Mg      28.94725000      44.05275000      70.52975000        0
O       26.84175000      44.05275000      70.52975000        0
Mg      28.94725000      46.15825000      68.42425000        0
O       26.84175000      46.15825000      68.42425000        0
Mg      26.84175000      48.26375000       9.47025000        0
O       28.94725000      48.26375000       9.47025000        0
Mg      26.84175000      50.36925000      11.57575000        0
O       28.94725000      50.36925000      11.57575000        0
Mg      28.94725000      48.26375000      11.57575000        0
O       26.84175000      48.26375000      11.57575000        0
Mg      28.94725000      50.36925000       9.47025000        0
O       26.84175000      50.36925000       9.47025000        0
Mg      26.84175000      48.26375000      13.68125000        0
O       28.94725000      48.26375000      13.68125000        0
Mg      26.84175000      50.36925000      15.78675000        0
O       28.94725000      50.36925000      15.78675000        0
Mg      28.94725000      48.26375000      15.78675000        0
O       26.84175000      48.26375000      15.78675000        0
Mg      28.94725000      50.36925000      13.68125000        0
O       26.84175000      50.36925000      13.68125000        0
Mg      26.84175000      48.26375000      17.89225000        0
O       28.94725000      48.26375000      17.89225000        0
Mg      26.84175000      50.36925000      19.99775000        0
O       28.94725000      50.36925000      19.99775000        0
Mg      28.94725000      48.26375000      19.99775000        0
O       26.84175000      48.26375000      19.99775000        0
Mg      28.94725000      50.36925000      17.89225000        0
O       26.84175000      50.36925000      17.89225000        0
Mg      26.84175000      48.26375000      22.10325000        0
O       28.94725000      48.26375000      22.10325000        0
Mg      26.84175000      50.36925000      24.20875000        0
O       28.94725000      50.36925000      24.20875000        0
Mg      28.94725000      48.26375000      24.20875000        0
O       26.84175000      48.26375000      24.20875000        0
Mg      28.94725000      50.36925000      22.10325000        0
O       26.84175000      50.36925000      22.10325000        0
Mg      26.84175000      48.26375000      26.31425000        0
O       28.94725000      48.26375000      26.31425000        0
Mg      26.84175000      50.36925000      28.41975000        0
O       28.94725000      50.36925000      28.41975000        0
Mg      28.94725000      48.26375000      28.41975000        0
O       26.84175000      48.26375000      28.41975000        0
Mg      28.94725000      50.36925000      26.31425000        0
O       26.84175000      50.36925000      26.31425000        0
Mg      26.84175000      48.26375000      30.52525000        0
O       28.94725000      48.26375000      30.52525000        0
Mg      26.84175000      50.36925000      32.63075000        0
O       28.94725000      50.36925000      32.63075000        0
Mg      28.94725000      48.26375000      32.63075000        0
O       26.84175000      48.26375000      32.63075000        0
Mg      28.94725000      50.36925000      30.52525000        0
O       26.84175000      50.36925000      30.52525000        0
Mg      26.84175000      48.26375000      34.73625000        0
O       28.94725000      48.26375000      34.73625000        0
Mg      26.84175000      50.36925000      36.84175000        0
O       28.94725000      50.36925000      36.84175000        0
Mg      28.94725000      48.26375000      36.84175000        0
O       26.84175000      48.26375000      36.84175000        0
Mg      28.94725000      50.36925000      34.73625000        0
O       26.84175000      50.36925000      34.73625000        0
Mg      26.84175000      48.26375000      38.94725000        0
O       28.94725000      48.26375000      38.94725000        0
Mg      26.84175000      50.36925000      41.05275000        0
O       28.94725000      50.36925000      41.05275000        0
Mg      28.94725000      48.26375000      41.05275000        0
O       26.84175000      48.26375000      41.05275000        0
Mg      28.94725000      50.36925000      38.94725000        0
O       26.84175000      50.36925000      38.94725000        0
Mg      26.84175000      48.26375000      43.15825000        0
O       28.94725000      48.26375000      43.15825000        0
Mg      26.84175000      50.36925000      45.26375000        0
O       28.94725000      50.36925000      45.26375000        0
Mg      28.94725000      48.26375000      45.26375000        0
O       26.84175000      48.26375000      45.26375000        0
Mg      28.94725000      50.36925000      43.15825000        0
O       26.84175000      50.36925000      43.15825000        0
Mg      26.84175000      48.26375000      47.36925000        0
O       28.94725000      48.26375000      47.36925000        0
Mg      26.84175000      50.36925000      49.47475000        0
O       28.94725000      50.36925000      49.47475000        0
Mg      28.94725000      48.26375000      49.47475000        0
O       26.84175000      48.26375000      49.47475000        0
Mg      28.94725000      50.36925000      47.36925000        0
O       26.84175000      50.36925000      47.36925000        0
Mg      26.84175000      48.26375000      51.58025000        0
O       28.94725000      48.26375000      51.58025000        0
Mg      26.84175000      50.36925000      53.68575000        0
O       28.94725000      50.36925000      53.68575000        0
Mg      28.94725000      48.26375000      53.68575000        0
O       26.84175000      48.26375000      53.68575000        0
Mg      28.94725000      50.36925000      51.58025000        0
O       26.84175000      50.36925000      51.58025000        0
Mg      26.84175000      48.26375000      55.79125000        0
O       28.94725000      48.26375000      55.79125000        0
Mg      26.84175000      50.36925000      57.89675000        0
O       28.94725000      50.36925000      57.89675000        0
Mg      28.94725000      48.26375000      57.89675000        0
O       26.84175000      48.26375000      57.89675000        0
Mg      28.94725000      50.36925000      55.79125000        0
O       26.84175000      50.36925000      55.79125000        0
Mg      26.84175000      48.26375000      60.00225000        0
O       28.94725000      48.26375000      60.00225000        0
Mg      26.84175000      50.36925000      62.10775000        0
O       28.94725000      50.36925000      62.10775000        0
Mg      28.94725000      48.26375000      62.10775000        0
O       26.84175000      48.26375000      62.10775000        0
Mg      28.94725000      50.36925000      60.00225000        0
O       26.84175000      50.36925000      60.00225000        0
Mg      26.84175000      48.26375000      64.21325000        0
O       28.94725000      48.26375000      64.21325000        0
Mg      26.84175000      50.36925000      66.31875000        0
O       28.94725000      50.36925000      66.31875000        0
Mg      28.94725000      48.26375000      66.31875000        0
O       26.84175000      48.26375000      66.31875000        0
Mg      28.94725000      50.36925000      64.21325000        0
O       26.84175000      50.36925000      64.21325000        0
Mg      26.84175000      48.26375000      68.42425000        0
O       28.94725000      48.26375000      68.42425000        0
Mg      26.84175000      50.36925000      70.52975000        0
O       28.94725000      50.36925000      70.52975000        0
Mg      28.94725000      48.26375000      70.52975000        0
O       26.84175000      48.26375000      70.52975000        0
Mg      28.94725000      50.36925000      68.42425000        0
O       26.84175000      50.36925000      68.42425000        0
Mg      31.05275000      35.63075000       9.47025000        0
O       33.15825000      35.63075000       9.47025000        0
Mg      31.05275000      37.73625000      11.57575000        0
O       33.15825000      37.73625000      11.57575000        0
Mg      33.15825000      35.63075000      11.57575000        0
O       31.05275000      35.63075000      11.57575000        0
Mg      33.15825000      37.73625000       9.47025000        0
O       31.05275000      37.73625000       9.47025000        0
Mg      31.05275000      35.63075000      13.68125000        0
O       33.15825000      35.63075000      13.68125000        0
Mg      31.05275000      37.73625000      15.78675000        0
O       33.15825000      37.73625000      15.78675000        0
Mg      33.15825000      35.63075000      15.78675000        0
O       31.05275000      35.63075000      15.78675000        0
Mg      33.15825000      37.73625000      13.68125000        0
O       31.05275000      37.73625000      13.68125000        0
Mg      31.05275000      35.63075000      17.89225000        0
O       33.15825000      35.63075000      17.89225000        0
Mg      31.05275000      37.73625000      19.99775000        0
O       33.15825000      37.73625000      19.99775000        0
Mg      33.15825000      35.63075000      19.99775000        0
O       31.05275000      35.63075000      19.99775000        0
Mg      33.15825000      37.73625000      17.89225000        0
O       31.05275000      37.73625000      17.89225000        0
Mg      31.05275000      35.63075000      22.10325000        0
O       33.15825000      35.63075000      22.10325000        0
Mg      31.05275000      37.73625000      24.20875000        0
O       33.15825000      37.73625000      24.20875000        0
Mg      33.15825000      35.63075000      24.20875000        0
O       31.05275000      35.63075000      24.20875000        0
Mg      33.15825000      37.73625000      22.10325000        0
O       31.05275000      37.73625000      22.10325000        0
Mg      31.05275000      35.63075000      26.31425000        0
O       33.15825000      35.63075000      26.31425000        0
Mg      31.05275000      37.73625000      28.41975000        0
O       33.15825000      37.73625000      28.41975000        0
Mg      33.15825000      35.63075000      28.41975000        0
O       31.05275000      35.63075000      28.41975000        0
Mg      33.15825000      37.73625000      26.31425000        0
O       31.05275000      37.73625000      26.31425000        0
Mg      31.05275000      35.63075000      30.52525000        0
O       33.15825000      35.63075000      30.52525000        0
Mg      31.05275000      37.73625000      32.63075000        0
O       33.15825000      37.73625000      32.63075000        0
Mg      33.15825000      35.63075000      32.63075000        0
O       31.05275000      35.63075000      32.63075000        0
Mg      33.15825000      37.73625000      30.52525000        0
O       31.05275000      37.73625000      30.52525000        0
Mg      31.05275000      35.63075000      34.73625000        0
O       33.15825000      35.63075000      34.73625000        0
Mg      31.05275000      37.73625000      36.84175000        0
O       33.15825000      37.73625000      36.84175000        0
Mg      33.15825000      35.63075000      36.84175000        0
O       31.05275000      35.63075000      36.84175000        0
Mg      33.15825000      37.73625000      34.73625000        0
O       31.05275000      37.73625000      34.73625000        0
Mg      31.05275000      35.63075000      38.94725000        0
O       33.15825000      35.63075000      38.94725000        0
Mg      31.05275000      37.73625000      41.05275000        0
O       33.15825000      37.73625000      41.05275000        0
Mg      33.15825000      35.63075000      41.05275000        0
O       31.05275000      35.63075000      41.05275000        0
Mg      33.15825000      37.73625000      38.94725000        0
O       31.05275000      37.73625000      38.94725000        0
Mg      31.05275000      35.63075000      43.15825000        0
O       33.15825000      35.63075000      43.15825000        0
Mg      31.05275000      37.73625000      45.26375000        0
O       33.15825000      37.73625000      45.26375000        0
Mg      33.15825000      35.63075000      45.26375000        0
O       31.05275000      35.63075000      45.26375000        0
Mg      33.15825000      37.73625000      43.15825000        0
O       31.05275000      37.73625000      43.15825000        0
Mg      31.05275000      35.63075000      47.36925000        0
O       33.15825000      35.63075000      47.36925000        0
Mg      31.05275000      37.73625000      49.47475000        0
O       33.15825000      37.73625000      49.47475000        0
Mg      33.15825000      35.63075000      49.47475000        0
O       31.05275000      35.63075000      49.47475000        0
Mg      33.15825000      37.73625000      47.36925000        0
O       31.05275000      37.73625000      47.36925000        0
Mg      31.05275000      35.63075000      51.58025000        0
O       33.15825000      35.63075000      51.58025000        0
Mg      31.05275000      37.73625000      53.68575000        0
O       33.15825000      37.73625000      53.68575000        0
Mg      33.15825000      35.63075000      53.68575000        0
O       31.05275000      35.63075000      53.68575000        0
Mg      33.15825000      37.73625000      51.58025000        0
O       31.05275000      37.73625000      51.58025000        0
Mg      31.05275000      35.63075000      55.79125000        0
O       33.15825000      35.63075000      55.79125000        0
Mg      31.05275000      37.73625000      57.89675000        0
O       33.15825000      37.73625000      57.89675000        0
Mg      33.15825000      35.63075000      57.89675000        0
O       31.05275000      35.63075000      57.89675000        0
Mg      33.15825000      37.73625000      55.79125000        0
O       31.05275000      37.73625000      55.79125000        0
Mg      31.05275000      35.63075000      60.00225000        0
O       33.15825000      35.63075000      60.00225000        0
Mg      31.05275000      37.73625000      62.10775000        0
O       33.15825000      37.73625000      62.10775000        0
Mg      33.15825000      35.63075000      62.10775000        0
O       31.05275000      35.63075000      62.10775000        0
Mg      33.15825000      37.73625000      60.00225000        0
O       31.05275000      37.73625000      60.00225000        0
Mg      31.05275000      35.63075000      64.21325000        0
O       33.15825000      35.63075000      64.21325000        0
Mg      31.05275000      37.73625000      66.31875000        0
O       33.15825000      37.73625000      66.31875000        0
Mg      33.15825000      35.63075000      66.31875000        0
O       31.05275000      35.63075000      66.31875000        0
Mg      33.15825000      37.73625000      64.21325000        0
O       31.05275000      37.73625000      64.21325000        0
Mg      31.05275000      35.63075000      68.42425000        0
O       33.15825000      35.63075000      68.42425000        0
Mg      31.05275000      37.73625000      70.52975000        0
O       33.15825000      37.73625000      70.52975000        0
Mg      33.15825000      35.63075000      70.52975000        0
O       31.05275000      35.63075000      70.52975000        0
Mg      33.15825000      37.73625000      68.42425000        0
O       31.05275000      37.73625000      68.42425000        0
Mg      31.05275000      39.84175000       9.47025000        0
O       33.15825000      39.84175000       9.47025000        0
Mg      31.05275000      41.94725000      11.57575000        0
O       33.15825000      41.94725000      11.57575000        0
Mg      33.15825000      39.84175000      11.57575000        0
O       31.05275000      39.84175000      11.57575000        0
Mg      33.15825000      41.94725000       9.47025000        0
O       31.05275000      41.94725000       9.47025000        0
Mg      31.05275000      39.84175000      13.68125000        0
O       33.15825000      39.84175000      13.68125000        0
Mg      31.05275000      41.94725000      15.78675000        0
O       33.15825000      41.94725000      15.78675000        0
Mg      33.15825000      39.84175000      15.78675000        0
O       31.05275000      39.84175000      15.78675000        0
Mg      33.15825000      41.94725000      13.68125000        0
O       31.05275000      41.94725000      13.68125000        0
Mg      31.05275000      39.84175000      17.89225000        0
O       33.15825000      39.84175000      17.89225000        0
Mg      31.05275000      41.94725000      19.99775000        0
O       33.15825000      41.94725000      19.99775000        0
Mg      33.15825000      39.84175000      19.99775000        0
O       31.05275000      39.84175000      19.99775000        0
Mg      33.15825000      41.94725000      17.89225000        0
O       31.05275000      41.94725000      17.89225000        0
Mg      31.05275000      39.84175000      22.10325000        0
O       33.15825000      39.84175000      22.10325000        0
Mg      31.05275000      41.94725000      24.20875000        0
O       33.15825000      41.94725000      24.20875000        0
Mg      33.15825000      39.84175000      24.20875000        0
O       31.05275000      39.84175000      24.20875000        0
Mg      33.15825000      41.94725000      22.10325000        0
O       31.05275000      41.94725000      22.10325000        0
Mg      31.05275000      39.84175000      26.31425000        0
O       33.15825000      39.84175000      26.31425000        0
Mg      31.05275000      41.94725000      28.41975000        0
O       33.15825000      41.94725000      28.41975000        0
Mg      33.15825000      39.84175000      28.41975000        0
O       31.05275000      39.84175000      28.41975000        0
Mg      33.15825000      41.94725000      26.31425000        0
O       31.05275000      41.94725000      26.31425000        0
Mg      31.05275000      39.84175000      30.52525000        0
O       33.15825000      39.84175000      30.52525000        0
Mg      31.05275000      41.94725000      32.63075000        0
O       33.15825000      41.94725000      32.63075000        0
Mg      33.15825000      39.84175000      32.63075000        0
O       31.05275000      39.84175000      32.63075000        0
Mg      33.15825000      41.94725000      30.52525000        0
O       31.05275000      41.94725000      30.52525000        0
Mg      31.05275000      39.84175000      34.73625000        0
O       33.15825000      39.84175000      34.73625000        0
Mg      31.05275000      41.94725000      36.84175000        0
O       33.15825000      41.94725000      36.84175000        0
Mg      33.15825000      39.84175000      36.84175000        0
O       31.05275000      39.84175000      36.84175000        0
Mg      33.15825000      41.94725000      34.73625000        0
O       31.05275000      41.94725000      34.73625000        0
Mg      31.05275000      39.84175000      38.94725000        0
O       33.15825000      39.84175000      38.94725000        0
Mg      31.05275000      41.94725000      41.05275000        0
O       33.15825000      41.94725000      41.05275000        0
Mg      33.15825000      39.84175000      41.05275000        0
O       31.05275000      39.84175000      41.05275000        0
Mg      33.15825000      41.94725000      38.94725000        0
O       31.05275000      41.94725000      38.94725000        0
Mg      31.05275000      39.84175000      43.15825000        0
O       33.15825000      39.84175000      43.15825000        0
Mg      31.05275000      41.94725000      45.26375000        0
O       33.15825000      41.94725000      45.26375000        0
Mg      33.15825000      39.84175000      45.26375000        0
O       31.05275000      39.84175000      45.26375000        0
Mg      33.15825000      41.94725000      43.15825000        0
O       31.05275000      41.94725000      43.15825000        0
Mg      31.05275000      39.84175000      47.36925000        0
O       33.15825000      39.84175000      47.36925000        0
Mg      31.05275000      41.94725000      49.47475000        0
O       33.15825000      41.94725000      49.47475000        0
Mg      33.15825000      39.84175000      49.47475000        0
O       31.05275000      39.84175000      49.47475000        0
Mg      33.15825000      41.94725000      47.36925000        0
O       31.05275000      41.94725000      47.36925000        0
Mg      31.05275000      39.84175000      51.58025000        0
O       33.15825000      39.84175000      51.58025000        0
Mg      31.05275000      41.94725000      53.68575000        0
O       33.15825000      41.94725000      53.68575000        0
Mg      33.15825000      39.84175000      53.68575000        0
O       31.05275000      39.84175000      53.68575000        0
Mg      33.15825000      41.94725000      51.58025000        0
O       31.05275000      41.94725000      51.58025000        0
Mg      31.05275000      39.84175000      55.79125000        0
O       33.15825000      39.84175000      55.79125000        0
Mg      31.05275000      41.94725000      57.89675000        0
O       33.15825000      41.94725000      57.89675000        0
Mg      33.15825000      39.84175000      57.89675000        0
O       31.05275000      39.84175000      57.89675000        0
Mg      33.15825000      41.94725000      55.79125000        0
O       31.05275000      41.94725000      55.79125000        0
Mg      31.05275000      39.84175000      60.00225000        0
O       33.15825000      39.84175000      60.00225000        0
Mg      31.05275000      41.94725000      62.10775000        0
O       33.15825000      41.94725000      62.10775000        0
Mg      33.15825000      39.84175000      62.10775000        0
O       31.05275000      39.84175000      62.10775000        0
Mg      33.15825000      41.94725000      60.00225000        0
O       31.05275000      41.94725000      60.00225000        0
Mg      31.05275000      39.84175000      64.21325000        0
O       33.15825000      39.84175000      64.21325000        0
Mg      31.05275000      41.94725000      66.31875000        0
O       33.15825000      41.94725000      66.31875000        0
Mg      33.15825000      39.84175000      66.31875000        0
O       31.05275000      39.84175000      66.31875000        0
Mg      33.15825000      41.94725000      64.21325000        0
O       31.05275000      41.94725000      64.21325000        0
Mg      31.05275000      39.84175000      68.42425000        0
O       33.15825000      39.84175000      68.42425000        0
Mg      31.05275000      41.94725000      70.52975000        0
O       33.15825000      41.94725000      70.52975000        0
Mg      33.15825000      39.84175000      70.52975000        0
O       31.05275000      39.84175000      70.52975000        0
Mg      33.15825000      41.94725000      68.42425000        0
O       31.05275000      41.94725000      68.42425000        0
Mg      31.05275000      44.05275000       9.47025000        0
O       33.15825000      44.05275000       9.47025000        0
Mg      31.05275000      46.15825000      11.57575000        0
O       33.15825000      46.15825000      11.57575000        0
Mg      33.15825000      44.05275000      11.57575000        0
O       31.05275000      44.05275000      11.57575000        0
Mg      33.15825000      46.15825000       9.47025000        0
O       31.05275000      46.15825000       9.47025000        0
Mg      31.05275000      44.05275000      13.68125000        0
O       33.15825000      44.05275000      13.68125000        0
Mg      31.05275000      46.15825000      15.78675000        0
O       33.15825000      46.15825000      15.78675000        0
Mg      33.15825000      44.05275000      15.78675000        0
O       31.05275000      44.05275000      15.78675000        0
Mg      33.15825000      46.15825000      13.68125000        0
O       31.05275000      46.15825000      13.68125000        0
Mg      31.05275000      44.05275000      17.89225000        0
O       33.15825000      44.05275000      17.89225000        0
Mg      31.05275000      46.15825000      19.99775000        0
O       33.15825000      46.15825000      19.99775000        0
Mg      33.15825000      44.05275000      19.99775000        0
O       31.05275000      44.05275000      19.99775000        0
Mg      33.15825000      46.15825000      17.89225000        0
O       31.05275000      46.15825000      17.89225000        0
Mg      31.05275000      44.05275000      22.10325000        0
O       33.15825000      44.05275000      22.10325000        0
Mg      31.05275000      46.15825000      24.20875000        0
O       33.15825000      46.15825000      24.20875000        0
Mg      33.15825000      44.05275000      24.20875000        0
O       31.05275000      44.05275000      24.20875000        0
Mg      33.15825000      46.15825000      22.10325000        0
O       31.05275000      46.15825000      22.10325000        0
Mg      31.05275000      44.05275000      26.31425000        0
O       33.15825000      44.05275000      26.31425000        0
Mg      31.05275000      46.15825000      28.41975000        0
O       33.15825000      46.15825000      28.41975000        0
Mg      33.15825000      44.05275000      28.41975000        0
O       31.05275000      44.05275000      28.41975000        0
Mg      33.15825000      46.15825000      26.31425000        0
O       31.05275000      46.15825000      26.31425000        0
Mg      31.05275000      44.05275000      30.52525000        0
O       33.15825000      44.05275000      30.52525000        0
Mg      31.05275000      46.15825000      32.63075000        0
O       33.15825000      46.15825000      32.63075000        0
Mg      33.15825000      44.05275000      32.63075000        0
O       31.05275000      44.05275000      32.63075000        0
Mg      33.15825000      46.15825000      30.52525000        0
O       31.05275000      46.15825000      30.52525000        0
Mg      31.05275000      44.05275000      34.73625000        0
O       33.15825000      44.05275000      34.73625000        0
Mg      31.05275000      46.15825000      36.84175000        0
O       33.15825000      46.15825000      36.84175000        0
Mg      33.15825000      44.05275000      36.84175000        0
O       31.05275000      44.05275000      36.84175000        0
Mg      33.15825000      46.15825000      34.73625000        0
O       31.05275000      46.15825000      34.73625000        0
Mg      31.05275000      44.05275000      38.94725000        0
O       33.15825000      44.05275000      38.94725000        0
Mg      31.05275000      46.15825000      41.05275000        0
O       33.15825000      46.15825000      41.05275000        0
Mg      33.15825000      44.05275000      41.05275000        0
O       31.05275000      44.05275000      41.05275000        0
Mg      33.15825000      46.15825000      38.94725000        0
O       31.05275000      46.15825000      38.94725000        0
Mg      31.05275000      44.05275000      43.15825000        0
O       33.15825000      44.05275000      43.15825000        0
Mg      31.05275000      46.15825000      45.26375000        0
O       33.15825000      46.15825000      45.26375000        0
Mg      33.15825000      44.05275000      45.26375000        0
O       31.05275000      44.05275000      45.26375000        0
Mg      33.15825000      46.15825000      43.15825000        0
O       31.05275000      46.15825000      43.15825000        0
Mg      31.05275000      44.05275000      47.36925000        0
O       33.15825000      44.05275000      47.36925000        0
Mg      31.05275000      46.15825000      49.47475000        0
O       33.15825000      46.15825000      49.47475000        0
Mg      33.15825000      44.05275000      49.47475000        0
O       31.05275000      44.05275000      49.47475000        0
Mg      33.15825000      46.15825000      47.36925000        0
O       31.05275000      46.15825000      47.36925000        0
Mg      31.05275000      44.05275000      51.58025000        0
O       33.15825000      44.05275000      51.58025000        0
Mg      31.05275000      46.15825000      53.68575000        0
O       33.15825000      46.15825000      53.68575000        0
Mg      33.15825000      44.05275000      53.68575000        0
O       31.05275000      44.05275000      53.68575000        0
Mg      33.15825000      46.15825000      51.58025000        0
O       31.05275000      46.15825000      51.58025000        0
Mg      31.05275000      44.05275000      55.79125000        0
O       33.15825000      44.05275000      55.79125000        0
Mg      31.05275000      46.15825000      57.89675000        0
O       33.15825000      46.15825000      57.89675000        0
Mg      33.15825000      44.05275000      57.89675000        0
O       31.05275000      44.05275000      57.89675000        0
Mg      33.15825000      46.15825000      55.79125000        0
O       31.05275000      46.15825000      55.79125000        0
Mg      31.05275000      44.05275000      60.00225000        0
O       33.15825000      44.05275000      60.00225000        0
Mg      31.05275000      46.15825000      62.10775000        0
O       33.15825000      46.15825000      62.10775000        0
Mg      33.15825000      44.05275000      62.10775000        0
O       31.05275000      44.05275000      62.10775000        0
Mg      33.15825000      46.15825000      60.00225000        0
O       31.05275000      46.15825000      60.00225000        0
Mg      31.05275000      44.05275000      64.21325000        0
O       33.15825000      44.05275000      64.21325000        0
Mg      31.05275000      46.15825000      66.31875000        0
O       33.15825000      46.15825000      66.31875000        0
Mg      33.15825000      44.05275000      66.31875000        0
O       31.05275000      44.05275000      66.31875000        0
Mg      33.15825000      46.15825000      64.21325000        0
O       31.05275000      46.15825000      64.21325000        0
Mg      31.05275000      44.05275000      68.42425000        0
O       33.15825000      44.05275000      68.42425000        0
Mg      31.05275000      46.15825000      70.52975000        0
O       33.15825000      46.15825000      70.52975000        0
Mg      33.15825000      44.05275000      70.52975000        0
O       31.05275000      44.05275000      70.52975000        0
Mg      33.15825000      46.15825000      68.42425000        0
O       31.05275000      46.15825000      68.42425000        0
Mg      31.05275000      48.26375000       9.47025000        0
O       33.15825000      48.26375000       9.47025000        0
Mg      31.05275000      50.36925000      11.57575000        0
O       33.15825000      50.36925000      11.57575000        0
Mg      33.15825000      48.26375000      11.57575000        0
O       31.05275000      48.26375000      11.57575000        0
Mg      33.15825000      50.36925000       9.47025000        0
O       31.05275000      50.36925000       9.47025000        0
Mg      31.05275000      48.26375000      13.68125000        0
O       33.15825000      48.26375000      13.68125000        0
Mg      31.05275000      50.36925000      15.78675000        0
O       33.15825000      50.36925000      15.78675000        0
Mg      33.15825000      48.26375000      15.78675000        0
O       31.05275000      48.26375000      15.78675000        0
Mg      33.15825000      50.36925000      13.68125000        0
O       31.05275000      50.36925000      13.68125000        0
Mg      31.05275000      48.26375000      17.89225000        0
O       33.15825000      48.26375000      17.89225000        0
Mg      31.05275000      50.36925000      19.99775000        0
O       33.15825000      50.36925000      19.99775000        0
Mg      33.15825000      48.26375000      19.99775000        0
O       31.05275000      48.26375000      19.99775000        0
Mg      33.15825000      50.36925000      17.89225000        0
O       31.05275000      50.36925000      17.89225000        0
Mg      31.05275000      48.26375000      22.10325000        0
O       33.15825000      48.26375000      22.10325000        0
Mg      31.05275000      50.36925000      24.20875000        0
O       33.15825000      50.36925000      24.20875000        0
Mg      33.15825000      48.26375000      24.20875000        0
O       31.05275000      48.26375000      24.20875000        0
Mg      33.15825000      50.36925000      22.10325000        0
O       31.05275000      50.36925000      22.10325000        0
Mg      31.05275000      48.26375000      26.31425000        0
O       33.15825000      48.26375000      26.31425000        0
Mg      31.05275000      50.36925000      28.41975000        0
O       33.15825000      50.36925000      28.41975000        0
Mg      33.15825000      48.26375000      28.41975000        0
O       31.05275000      48.26375000      28.41975000        0
Mg      33.15825000      50.36925000      26.31425000        0
O       31.05275000      50.36925000      26.31425000        0
Mg      31.05275000      48.26375000      30.52525000        0
O       33.15825000      48.26375000      30.52525000        0
Mg      31.05275000      50.36925000      32.63075000        0
O       33.15825000      50.36925000      32.63075000        0
Mg      33.15825000      48.26375000      32.63075000        0
O       31.05275000      48.26375000      32.63075000        0
Mg      33.15825000      50.36925000      30.52525000        0
O       31.05275000      50.36925000      30.52525000        0
Mg      31.05275000      48.26375000      34.73625000        0
O       33.15825000      48.26375000      34.73625000        0
Mg      31.05275000      50.36925000      36.84175000        0
O       33.15825000      50.36925000      36.84175000        0
Mg      33.15825000      48.26375000      36.84175000        0
O       31.05275000      48.26375000      36.84175000        0
Mg      33.15825000      50.36925000      34.73625000        0
O       31.05275000      50.36925000      34.73625000        0
Mg      31.05275000      48.26375000      38.94725000        0
O       33.15825000      48.26375000      38.94725000        0
Mg      31.05275000      50.36925000      41.05275000        0
O       33.15825000      50.36925000      41.05275000        0
Mg      33.15825000      48.26375000      41.05275000        0
O       31.05275000      48.26375000      41.05275000        0
Mg      33.15825000      50.36925000      38.94725000        0
O       31.05275000      50.36925000      38.94725000        0
Mg      31.05275000      48.26375000      43.15825000        0
O       33.15825000      48.26375000      43.15825000        0
Mg      31.05275000      50.36925000      45.26375000        0
O       33.15825000      50.36925000      45.26375000        0
Mg      33.15825000      48.26375000      45.26375000        0
O       31.05275000      48.26375000      45.26375000        0
Mg      33.15825000      50.36925000      43.15825000        0
O       31.05275000      50.36925000      43.15825000        0
Mg      31.05275000      48.26375000      47.36925000        0
O       33.15825000      48.26375000      47.36925000        0
Mg      31.05275000      50.36925000      49.47475000        0
O       33.15825000      50.36925000      49.47475000        0
Mg      33.15825000      48.26375000      49.47475000        0
O       31.05275000      48.26375000      49.47475000        0
Mg      33.15825000      50.36925000      47.36925000        0
O       31.05275000      50.36925000      47.36925000        0
Mg      31.05275000      48.26375000      51.58025000        0
O       33.15825000      48.26375000      51.58025000        0
Mg      31.05275000      50.36925000      53.68575000        0
O       33.15825000      50.36925000      53.68575000        0
Mg      33.15825000      48.26375000      53.68575000        0
O       31.05275000      48.26375000      53.68575000        0
Mg      33.15825000      50.36925000      51.58025000        0
O       31.05275000      50.36925000      51.58025000        0
Mg      31.05275000      48.26375000      55.79125000        0
O       33.15825000      48.26375000      55.79125000        0
Mg      31.05275000      50.36925000      57.89675000        0
O       33.15825000      50.36925000      57.89675000        0
Mg      33.15825000      48.26375000      57.89675000        0
O       31.05275000      48.26375000      57.89675000        0
Mg      33.15825000      50.36925000      55.79125000        0
O       31.05275000      50.36925000      55.79125000        0
Mg      31.05275000      48.26375000      60.00225000        0
O       33.15825000      48.26375000      60.00225000        0
Mg      31.05275000      50.36925000      62.10775000        0
O       33.15825000      50.36925000      62.10775000        0
Mg      33.15825000      48.26375000      62.10775000        0
O       31.05275000      48.26375000      62.10775000        0
Mg      33.15825000      50.36925000      60.00225000        0
O       31.05275000      50.36925000      60.00225000        0
Mg      31.05275000      48.26375000      64.21325000        0
O       33.15825000      48.26375000      64.21325000        0
Mg      31.05275000      50.36925000      66.31875000        0
O       33.15825000      50.36925000      66.31875000        0
Mg      33.15825000      48.26375000      66.31875000        0
O       31.05275000      48.26375000      66.31875000        0
Mg      33.15825000      50.36925000      64.21325000        0
O       31.05275000      50.36925000      64.21325000        0
Mg      31.05275000      48.26375000      68.42425000        0
O       33.15825000      48.26375000      68.42425000        0
Mg      31.05275000      50.36925000      70.52975000        0
O       33.15825000      50.36925000      70.52975000        0
Mg      33.15825000      48.26375000      70.52975000        0
O       31.05275000      48.26375000      70.52975000        0
Mg      33.15825000      50.36925000      68.42425000        0
O       31.05275000      50.36925000      68.42425000        0
Mg      35.26375000      35.63075000       9.47025000        0
O       37.36925000      35.63075000       9.47025000        0
Mg      35.26375000      37.73625000      11.57575000        0
O       37.36925000      37.73625000      11.57575000        0
Mg      37.36925000      35.63075000      11.57575000        0
O       35.26375000      35.63075000      11.57575000        0
Mg      37.36925000      37.73625000       9.47025000        0
O       35.26375000      37.73625000       9.47025000        0
Mg      35.26375000      35.63075000      13.68125000        0
O       37.36925000      35.63075000      13.68125000        0
Mg      35.26375000      37.73625000      15.78675000        0
O       37.36925000      37.73625000      15.78675000        0
Mg      37.36925000      35.63075000      15.78675000        0
O       35.26375000      35.63075000      15.78675000        0
Mg      37.36925000      37.73625000      13.68125000        0
O       35.26375000      37.73625000      13.68125000        0
Mg      35.26375000      35.63075000      17.89225000        0
O       37.36925000      35.63075000      17.89225000        0
Mg      35.26375000      37.73625000      19.99775000        0
O       37.36925000      37.73625000      19.99775000        0
Mg      37.36925000      35.63075000      19.99775000        0
O       35.26375000      35.63075000      19.99775000        0
Mg      37.36925000      37.73625000      17.89225000        0
O       35.26375000      37.73625000      17.89225000        0
Mg      35.26375000      35.63075000      22.10325000        0
O       37.36925000      35.63075000      22.10325000        0
Mg      35.26375000      37.73625000      24.20875000        0
O       37.36925000      37.73625000      24.20875000        0
Mg      37.36925000      35.63075000      24.20875000        0
O       35.26375000      35.63075000      24.20875000        0
Mg      37.36925000      37.73625000      22.10325000        0
O       35.26375000      37.73625000      22.10325000        0
Mg      35.26375000      35.63075000      26.31425000        0
O       37.36925000      35.63075000      26.31425000        0
Mg      35.26375000      37.73625000      28.41975000        0
O       37.36925000      37.73625000      28.41975000        0
Mg      37.36925000      35.63075000      28.41975000        0
O       35.26375000      35.63075000      28.41975000        0
Mg      37.36925000      37.73625000      26.31425000        0
O       35.26375000      37.73625000      26.31425000        0
Mg      35.26375000      35.63075000      30.52525000        0
O       37.36925000      35.63075000      30.52525000        0
Mg      35.26375000      37.73625000      32.63075000        0
O       37.36925000      37.73625000      32.63075000        0
Mg      37.36925000      35.63075000      32.63075000        0
O       35.26375000      35.63075000      32.63075000        0
Mg      37.36925000      37.73625000      30.52525000        0
O       35.26375000      37.73625000      30.52525000        0
Mg      35.26375000      35.63075000      34.73625000        0
O       37.36925000      35.63075000      34.73625000        0
Mg      35.26375000      37.73625000      36.84175000        0
O       37.36925000      37.73625000      36.84175000        0
Mg      37.36925000      35.63075000      36.84175000        0
O       35.26375000      35.63075000      36.84175000        0
Mg      37.36925000      37.73625000      34.73625000        0
O       35.26375000      37.73625000      34.73625000        0
Mg      35.26375000      35.63075000      38.94725000        0
O       37.36925000      35.63075000      38.94725000        0
Mg      35.26375000      37.73625000      41.05275000        0
O       37.36925000      37.73625000      41.05275000        0
Mg      37.36925000      35.63075000      41.05275000        0
O       35.26375000      35.63075000      41.05275000        0
Mg      37.36925000      37.73625000      38.94725000        0
O       35.26375000      37.73625000      38.94725000        0
Mg      35.26375000      35.63075000      43.15825000        0
O       37.36925000      35.63075000      43.15825000        0
Mg      35.26375000      37.73625000      45.26375000        0
O       37.36925000      37.73625000      45.26375000        0
Mg      37.36925000      35.63075000      45.26375000        0
O       35.26375000      35.63075000      45.26375000        0
Mg      37.36925000      37.73625000      43.15825000        0
O       35.26375000      37.73625000      43.15825000        0
Mg      35.26375000      35.63075000      47.36925000        0
O       37.36925000      35.63075000      47.36925000        0
Mg      35.26375000      37.73625000      49.47475000        0
O       37.36925000      37.73625000      49.47475000        0
Mg      37.36925000      35.63075000      49.47475000        0
O       35.26375000      35.63075000      49.47475000        0
Mg      37.36925000      37.73625000      47.36925000        0
O       35.26375000      37.73625000      47.36925000        0
Mg      35.26375000      35.63075000      51.58025000        0
O       37.36925000      35.63075000      51.58025000        0
Mg      35.26375000      37.73625000      53.68575000        0
O       37.36925000      37.73625000      53.68575000        0
Mg      37.36925000      35.63075000      53.68575000        0
O       35.26375000      35.63075000      53.68575000        0
Mg      37.36925000      37.73625000      51.58025000        0
O       35.26375000      37.73625000      51.58025000        0
Mg      35.26375000      35.63075000      55.79125000        0
O       37.36925000      35.63075000      55.79125000        0
Mg      35.26375000      37.73625000      57.89675000        0
O       37.36925000      37.73625000      57.89675000        0
Mg      37.36925000      35.63075000      57.89675000        0
O       35.26375000      35.63075000      57.89675000        0
Mg      37.36925000      37.73625000      55.79125000        0
O       35.26375000      37.73625000      55.79125000        0
Mg      35.26375000      35.63075000      60.00225000        0
O       37.36925000      35.63075000      60.00225000        0
Mg      35.26375000      37.73625000      62.10775000        0
O       37.36925000      37.73625000      62.10775000        0
Mg      37.36925000      35.63075000      62.10775000        0
O       35.26375000      35.63075000      62.10775000        0
Mg      37.36925000      37.73625000      60.00225000        0
O       35.26375000      37.73625000      60.00225000        0
Mg      35.26375000      35.63075000      64.21325000        0
O       37.36925000      35.63075000      64.21325000        0
Mg      35.26375000      37.73625000      66.31875000        0
O       37.36925000      37.73625000      66.31875000        0
Mg      37.36925000      35.63075000      66.31875000        0
O       35.26375000      35.63075000      66.31875000        0
Mg      37.36925000      37.73625000      64.21325000        0
O       35.26375000      37.73625000      64.21325000        0
Mg      35.26375000      35.63075000      68.42425000        0
O       37.36925000      35.63075000      68.42425000        0
Mg      35.26375000      37.73625000      70.52975000        0
O       37.36925000      37.73625000      70.52975000        0
Mg      37.36925000      35.63075000      70.52975000        0
O       35.26375000      35.63075000      70.52975000        0
Mg      37.36925000      37.73625000      68.42425000        0
O       35.26375000      37.73625000      68.42425000        0
Mg      35.26375000      39.84175000       9.47025000        0
O       37.36925000      39.84175000       9.47025000        0
Mg      35.26375000      41.94725000      11.57575000        0
O       37.36925000      41.94725000      11.57575000        0
Mg      37.36925000      39.84175000      11.57575000        0
O       35.26375000      39.84175000      11.57575000        0
Mg      37.36925000      41.94725000       9.47025000        0
O       35.26375000      41.94725000       9.47025000        0
Mg      35.26375000      39.84175000      13.68125000        0
O       37.36925000      39.84175000      13.68125000        0
Mg      35.26375000      41.94725000      15.78675000        0
O       37.36925000      41.94725000      15.78675000        0
Mg      37.36925000      39.84175000      15.78675000        0
O       35.26375000      39.84175000      15.78675000        0
Mg      37.36925000      41.94725000      13.68125000        0
O       35.26375000      41.94725000      13.68125000        0
Mg      35.26375000      39.84175000      17.89225000        0
O       37.36925000      39.84175000      17.89225000        0
Mg      35.26375000      41.94725000      19.99775000        0
O       37.36925000      41.94725000      19.99775000        0
Mg      37.36925000      39.84175000      19.99775000        0
O       35.26375000      39.84175000      19.99775000        0
Mg      37.36925000      41.94725000      17.89225000        0
O       35.26375000      41.94725000      17.89225000        0
Mg      35.26375000      39.84175000      22.10325000        0
O       37.36925000      39.84175000      22.10325000        0
Mg      35.26375000      41.94725000      24.20875000        0
O       37.36925000      41.94725000      24.20875000        0
Mg      37.36925000      39.84175000      24.20875000        0
O       35.26375000      39.84175000      24.20875000        0
Mg      37.36925000      41.94725000      22.10325000        0
O       35.26375000      41.94725000      22.10325000        0
Mg      35.26375000      39.84175000      26.31425000        0
O       37.36925000      39.84175000      26.31425000        0
Mg      35.26375000      41.94725000      28.41975000        0
O       37.36925000      41.94725000      28.41975000        0
Mg      37.36925000      39.84175000      28.41975000        0
O       35.26375000      39.84175000      28.41975000        0
Mg      37.36925000      41.94725000      26.31425000        0
O       35.26375000      41.94725000      26.31425000        0
Mg      35.26375000      39.84175000      30.52525000        0
O       37.36925000      39.84175000      30.52525000        0
Mg      35.26375000      41.94725000      32.63075000        0
O       37.36925000      41.94725000      32.63075000        0
Mg      37.36925000      39.84175000      32.63075000        0
O       35.26375000      39.84175000      32.63075000        0
Mg      37.36925000      41.94725000      30.52525000        0
O       35.26375000      41.94725000      30.52525000        0
Mg      35.26375000      39.84175000      34.73625000        0
O       37.36925000      39.84175000      34.73625000        0
Mg      35.26375000      41.94725000      36.84175000        0
O       37.36925000      41.94725000      36.84175000        0
Mg      37.36925000      39.84175000      36.84175000        0
O       35.26375000      39.84175000      36.84175000        0
Mg      37.36925000      41.94725000      34.73625000        0
O       35.26375000      41.94725000      34.73625000        0
Mg      35.26375000      39.84175000      38.94725000        0
O       37.36925000      39.84175000      38.94725000        0
Mg      35.26375000      41.94725000      41.05275000        0
O       37.36925000      41.94725000      41.05275000        0
Mg      37.36925000      39.84175000      41.05275000        0
O       35.26375000      39.84175000      41.05275000        0
Mg      37.36925000      41.94725000      38.94725000        0
O       35.26375000      41.94725000      38.94725000        0
Mg      35.26375000      39.84175000      43.15825000        0
O       37.36925000      39.84175000      43.15825000        0
Mg      35.26375000      41.94725000      45.26375000        0
O       37.36925000      41.94725000      45.26375000        0
Mg      37.36925000      39.84175000      45.26375000        0
O       35.26375000      39.84175000      45.26375000        0
Mg      37.36925000      41.94725000      43.15825000        0
O       35.26375000      41.94725000      43.15825000        0
Mg      35.26375000      39.84175000      47.36925000        0
O       37.36925000      39.84175000      47.36925000        0
Mg      35.26375000      41.94725000      49.47475000        0
O       37.36925000      41.94725000      49.47475000        0
Mg      37.36925000      39.84175000      49.47475000        0
O       35.26375000      39.84175000      49.47475000        0
Mg      37.36925000      41.94725000      47.36925000        0
O       35.26375000      41.94725000      47.36925000        0
Mg      35.26375000      39.84175000      51.58025000        0
O       37.36925000      39.84175000      51.58025000        0
Mg      35.26375000      41.94725000      53.68575000        0
O       37.36925000      41.94725000      53.68575000        0
Mg      37.36925000      39.84175000      53.68575000        0
O       35.26375000      39.84175000      53.68575000        0
Mg      37.36925000      41.94725000      51.58025000        0
O       35.26375000      41.94725000      51.58025000        0
Mg      35.26375000      39.84175000      55.79125000        0
O       37.36925000      39.84175000      55.79125000        0
Mg      35.26375000      41.94725000      57.89675000        0
O       37.36925000      41.94725000      57.89675000        0
Mg      37.36925000      39.84175000      57.89675000        0
O       35.26375000      39.84175000      57.89675000        0
Mg      37.36925000      41.94725000      55.79125000        0
O       35.26375000      41.94725000      55.79125000        0
Mg      35.26375000      39.84175000      60.00225000        0
O       37.36925000      39.84175000      60.00225000        0
Mg      35.26375000      41.94725000      62.10775000        0
O       37.36925000      41.94725000      62.10775000        0
Mg      37.36925000      39.84175000      62.10775000        0
O       35.26375000      39.84175000      62.10775000        0
Mg      37.36925000      41.94725000      60.00225000        0
O       35.26375000      41.94725000      60.00225000        0
Mg      35.26375000      39.84175000      64.21325000        0
O       37.36925000      39.84175000      64.21325000        0
Mg      35.26375000      41.94725000      66.31875000        0
O       37.36925000      41.94725000      66.31875000        0
Mg      37.36925000      39.84175000      66.31875000        0
O       35.26375000      39.84175000      66.31875000        0
Mg      37.36925000      41.94725000      64.21325000        0
O       35.26375000      41.94725000      64.21325000        0
Mg      35.26375000      39.84175000      68.42425000        0
O       37.36925000      39.84175000      68.42425000        0
Mg      35.26375000      41.94725000      70.52975000        0
O       37.36925000      41.94725000      70.52975000        0
Mg      37.36925000      39.84175000      70.52975000        0
O       35.26375000      39.84175000      70.52975000        0
Mg      37.36925000      41.94725000      68.42425000        0
O       35.26375000      41.94725000      68.42425000        0
Mg      35.26375000      44.05275000       9.47025000        0
O       37.36925000      44.05275000       9.47025000        0
Mg      35.26375000      46.15825000      11.57575000        0
O       37.36925000      46.15825000      11.57575000        0
Mg      37.36925000      44.05275000      11.57575000        0
O       35.26375000      44.05275000      11.57575000        0
Mg      37.36925000      46.15825000       9.47025000        0
O       35.26375000      46.15825000       9.47025000        0
Mg      35.26375000      44.05275000      13.68125000        0
O       37.36925000      44.05275000      13.68125000        0
Mg      35.26375000      46.15825000      15.78675000        0
O       37.36925000      46.15825000      15.78675000        0
Mg      37.36925000      44.05275000      15.78675000        0
O       35.26375000      44.05275000      15.78675000        0
Mg      37.36925000      46.15825000      13.68125000        0
O       35.26375000      46.15825000      13.68125000        0
Mg      35.26375000      44.05275000      17.89225000        0
O       37.36925000      44.05275000      17.89225000        0
Mg      35.26375000      46.15825000      19.99775000        0
O       37.36925000      46.15825000      19.99775000        0
Mg      37.36925000      44.05275000      19.99775000        0
O       35.26375000      44.05275000      19.99775000        0
Mg      37.36925000      46.15825000      17.89225000        0
O       35.26375000      46.15825000      17.89225000        0
Mg      35.26375000      44.05275000      22.10325000        0
O       37.36925000      44.05275000      22.10325000        0
Mg      35.26375000      46.15825000      24.20875000        0
O       37.36925000      46.15825000      24.20875000        0
Mg      37.36925000      44.05275000      24.20875000        0
O       35.26375000      44.05275000      24.20875000        0
Mg      37.36925000      46.15825000      22.10325000        0
O       35.26375000      46.15825000      22.10325000        0
Mg      35.26375000      44.05275000      26.31425000        0
O       37.36925000      44.05275000      26.31425000        0
Mg      35.26375000      46.15825000      28.41975000        0
O       37.36925000      46.15825000      28.41975000        0
Mg      37.36925000      44.05275000      28.41975000        0
O       35.26375000      44.05275000      28.41975000        0
Mg      37.36925000      46.15825000      26.31425000        0
O       35.26375000      46.15825000      26.31425000        0
Mg      35.26375000      44.05275000      30.52525000        0
O       37.36925000      44.05275000      30.52525000        0
Mg      35.26375000      46.15825000      32.63075000        0
O       37.36925000      46.15825000      32.63075000        0
Mg      37.36925000      44.05275000      32.63075000        0
O       35.26375000      44.05275000      32.63075000        0
Mg      37.36925000      46.15825000      30.52525000        0
O       35.26375000      46.15825000      30.52525000        0
Mg      35.26375000      44.05275000      34.73625000        0
O       37.36925000      44.05275000      34.73625000        0
Mg      35.26375000      46.15825000      36.84175000        0
O       37.36925000      46.15825000      36.84175000        0
Mg      37.36925000      44.05275000      36.84175000        0
O       35.26375000      44.05275000      36.84175000        0
Mg      37.36925000      46.15825000      34.73625000        0
O       35.26375000      46.15825000      34.73625000        0
Mg      35.26375000      44.05275000      38.94725000        0
O       37.36925000      44.05275000      38.94725000        0
Mg      35.26375000      46.15825000      41.05275000        0
O       37.36925000      46.15825000      41.05275000        0
Mg      37.36925000      44.05275000      41.05275000        0
O       35.26375000      44.05275000      41.05275000        0
Mg      37.36925000      46.15825000      38.94725000        0
O       35.26375000      46.15825000      38.94725000        0
Mg      35.26375000      44.05275000      43.15825000        0
O       37.36925000      44.05275000      43.15825000        0
Mg      35.26375000      46.15825000      45.26375000        0
O       37.36925000      46.15825000      45.26375000        0
Mg      37.36925000      44.05275000      45.26375000        0
O       35.26375000      44.05275000      45.26375000        0
Mg      37.36925000      46.15825000      43.15825000        0
O       35.26375000      46.15825000      43.15825000        0
Mg      35.26375000      44.05275000      47.36925000        0
O       37.36925000      44.05275000      47.36925000        0
Mg      35.26375000      46.15825000      49.47475000        0
O       37.36925000      46.15825000      49.47475000        0
Mg      37.36925000      44.05275000      49.47475000        0
O       35.26375000      44.05275000      49.47475000        0
Mg      37.36925000      46.15825000      47.36925000        0
O       35.26375000      46.15825000      47.36925000        0
Mg      35.26375000      44.05275000      51.58025000        0
O       37.36925000      44.05275000      51.58025000        0
Mg      35.26375000      46.15825000      53.68575000        0
O       37.36925000      46.15825000      53.68575000        0
Mg      37.36925000      44.05275000      53.68575000        0
O       35.26375000      44.05275000      53.68575000        0
Mg      37.36925000      46.15825000      51.58025000        0
O       35.26375000      46.15825000      51.58025000        0
Mg      35.26375000      44.05275000      55.79125000        0
O       37.36925000      44.05275000      55.79125000        0
Mg      35.26375000      46.15825000      57.89675000        0
O       37.36925000      46.15825000      57.89675000        0
Mg      37.36925000      44.05275000      57.89675000        0
O       35.26375000      44.05275000      57.89675000        0
Mg      37.36925000      46.15825000      55.79125000        0
O       35.26375000      46.15825000      55.79125000        0
Mg      35.26375000      44.05275000      60.00225000        0
O       37.36925000      44.05275000      60.00225000        0
Mg      35.26375000      46.15825000      62.10775000        0
O       37.36925000      46.15825000      62.10775000        0
Mg      37.36925000      44.05275000      62.10775000        0
O       35.26375000      44.05275000      62.10775000        0
Mg      37.36925000      46.15825000      60.00225000        0
O       35.26375000      46.15825000      60.00225000        0
Mg      35.26375000      44.05275000      64.21325000        0
O       37.36925000      44.05275000      64.21325000        0
Mg      35.26375000      46.15825000      66.31875000        0
O       37.36925000      46.15825000      66.31875000        0
Mg      37.36925000      44.05275000      66.31875000        0
O       35.26375000      44.05275000      66.31875000        0
Mg      37.36925000      46.15825000      64.21325000        0
O       35.26375000      46.15825000      64.21325000        0
Mg      35.26375000      44.05275000      68.42425000        0
O       37.36925000      44.05275000      68.42425000        0
Mg      35.26375000      46.15825000      70.52975000        0
O       37.36925000      46.15825000      70.52975000        0
Mg      37.36925000      44.05275000      70.52975000        0
O       35.26375000      44.05275000      70.52975000        0
Mg      37.36925000      46.15825000      68.42425000        0
O       35.26375000      46.15825000      68.42425000        0
Mg      35.26375000      48.26375000       9.47025000        0
O       37.36925000      48.26375000       9.47025000        0
Mg      35.26375000      50.36925000      11.57575000        0
O       37.36925000      50.36925000      11.57575000        0
Mg      37.36925000      48.26375000      11.57575000        0
O       35.26375000      48.26375000      11.57575000        0
Mg      37.36925000      50.36925000       9.47025000        0
O       35.26375000      50.36925000       9.47025000        0
Mg      35.26375000      48.26375000      13.68125000        0
O       37.36925000      48.26375000      13.68125000        0
Mg      35.26375000      50.36925000      15.78675000        0
O       37.36925000      50.36925000      15.78675000        0
Mg      37.36925000      48.26375000      15.78675000        0
O       35.26375000      48.26375000      15.78675000        0
Mg      37.36925000      50.36925000      13.68125000        0
O       35.26375000      50.36925000      13.68125000        0
Mg      35.26375000      48.26375000      17.89225000        0
O       37.36925000      48.26375000      17.89225000        0
Mg      35.26375000      50.36925000      19.99775000        0
O       37.36925000      50.36925000      19.99775000        0
Mg      37.36925000      48.26375000      19.99775000        0
O       35.26375000      48.26375000      19.99775000        0
Mg      37.36925000      50.36925000      17.89225000        0
O       35.26375000      50.36925000      17.89225000        0
Mg      35.26375000      48.26375000      22.10325000        0
O       37.36925000      48.26375000      22.10325000        0
Mg      35.26375000      50.36925000      24.20875000        0
O       37.36925000      50.36925000      24.20875000        0
Mg      37.36925000      48.26375000      24.20875000        0
O       35.26375000      48.26375000      24.20875000        0
Mg      37.36925000      50.36925000      22.10325000        0
O       35.26375000      50.36925000      22.10325000        0
Mg      35.26375000      48.26375000      26.31425000        0
O       37.36925000      48.26375000      26.31425000        0
Mg      35.26375000      50.36925000      28.41975000        0
O       37.36925000      50.36925000      28.41975000        0
Mg      37.36925000      48.26375000      28.41975000        0
O       35.26375000      48.26375000      28.41975000        0
Mg      37.36925000      50.36925000      26.31425000        0
O       35.26375000      50.36925000      26.31425000        0
Mg      35.26375000      48.26375000      30.52525000        0
O       37.36925000      48.26375000      30.52525000        0
Mg      35.26375000      50.36925000      32.63075000        0
O       37.36925000      50.36925000      32.63075000        0
Mg      37.36925000      48.26375000      32.63075000        0
O       35.26375000      48.26375000      32.63075000        0
Mg      37.36925000      50.36925000      30.52525000        0
O       35.26375000      50.36925000      30.52525000        0
Mg      35.26375000      48.26375000      34.73625000        0
O       37.36925000      48.26375000      34.73625000        0
Mg      35.26375000      50.36925000      36.84175000        0
O       37.36925000      50.36925000      36.84175000        0
Mg      37.36925000      48.26375000      36.84175000        0
O       35.26375000      48.26375000      36.84175000        0
Mg      37.36925000      50.36925000      34.73625000        0
O       35.26375000      50.36925000      34.73625000        0
Mg      35.26375000      48.26375000      38.94725000        0
O       37.36925000      48.26375000      38.94725000        0
Mg      35.26375000      50.36925000      41.05275000        0
O       37.36925000      50.36925000      41.05275000        0
Mg      37.36925000      48.26375000      41.05275000        0
O       35.26375000      48.26375000      41.05275000        0
Mg      37.36925000      50.36925000      38.94725000        0
O       35.26375000      50.36925000      38.94725000        0
Mg      35.26375000      48.26375000      43.15825000        0
O       37.36925000      48.26375000      43.15825000        0
Mg      35.26375000      50.36925000      45.26375000        0
O       37.36925000      50.36925000      45.26375000        0
Mg      37.36925000      48.26375000      45.26375000        0
O       35.26375000      48.26375000      45.26375000        0
Mg      37.36925000      50.36925000      43.15825000        0
O       35.26375000      50.36925000      43.15825000        0
Mg      35.26375000      48.26375000      47.36925000        0
O       37.36925000      48.26375000      47.36925000        0
Mg      35.26375000      50.36925000      49.47475000        0
O       37.36925000      50.36925000      49.47475000        0
Mg      37.36925000      48.26375000      49.47475000        0
O       35.26375000      48.26375000      49.47475000        0
Mg      37.36925000      50.36925000      47.36925000        0
O       35.26375000      50.36925000      47.36925000        0
Mg      35.26375000      48.26375000      51.58025000        0
O       37.36925000      48.26375000      51.58025000        0
Mg      35.26375000      50.36925000      53.68575000        0
O       37.36925000      50.36925000      53.68575000        0
Mg      37.36925000      48.26375000      53.68575000        0
O       35.26375000      48.26375000      53.68575000        0
Mg      37.36925000      50.36925000      51.58025000        0
O       35.26375000      50.36925000      51.58025000        0
Mg      35.26375000      48.26375000      55.79125000        0
O       37.36925000      48.26375000      55.79125000        0
Mg      35.26375000      50.36925000      57.89675000        0
O       37.36925000      50.36925000      57.89675000        0
Mg      37.36925000      48.26375000      57.89675000        0
O       35.26375000      48.26375000      57.89675000        0
Mg      37.36925000      50.36925000      55.79125000        0
O       35.26375000      50.36925000      55.79125000        0
Mg      35.26375000      48.26375000      60.00225000        0
O       37.36925000      48.26375000      60.00225000        0
Mg      35.26375000      50.36925000      62.10775000        0
O       37.36925000      50.36925000      62.10775000        0
Mg      37.36925000      48.26375000      62.10775000        0
O       35.26375000      48.26375000      62.10775000        0
Mg      37.36925000      50.36925000      60.00225000        0
O       35.26375000      50.36925000      60.00225000        0
Mg      35.26375000      48.26375000      64.21325000        0
O       37.36925000      48.26375000      64.21325000        0
Mg      35.26375000      50.36925000      66.31875000        0
O       37.36925000      50.36925000      66.31875000        0
Mg      37.36925000      48.26375000      66.31875000        0
O       35.26375000      48.26375000      66.31875000        0
Mg      37.36925000      50.36925000      64.21325000        0
O       35.26375000      50.36925000      64.21325000        0
Mg      35.26375000      48.26375000      68.42425000        0
O       37.36925000      48.26375000      68.42425000        0
Mg      35.26375000      50.36925000      70.52975000        0
O       37.36925000      50.36925000      70.52975000        0
Mg      37.36925000      48.26375000      70.52975000        0
O       35.26375000      48.26375000      70.52975000        0
Mg      37.36925000      50.36925000      68.42425000        0
O       35.26375000      50.36925000      68.42425000        0
C       41.69026706      21.24906610      42.36905868        0
C       42.20303200      20.48139887      43.61564918        0
C       41.05850571      19.51415475      44.01726445        0
C       43.44570965      19.60153288      43.33671639        0
C       43.99179500      19.43157058      42.05425344        0
C       45.12477030      18.63157216      41.84458276        0
C       45.73738719      17.98117993      42.91389398        0
O       46.84214750      17.17922488      42.84371156        0
C       47.55556228      17.17176426      41.60866788        0
C       48.77587462      16.32959002      41.78869891        0
C       50.05609447      16.90928817      42.33004428        0
O       49.87122246      16.66699331      40.92521085        0
C       45.19969983      18.12640171      44.19049461        0
C       44.07340254      18.92670835      44.40166148        0
C       42.51734822      21.55266023      44.68802646        0
C       41.74241490      21.72963240      45.84600087        0
C       42.05338284      22.72309761      46.78743359        0
C       43.14570837      23.56424395      46.59122807        0
O       43.55419945      24.57009872      47.42290888        0
C       42.77176771      24.80021274      48.59664661        0
C       43.35855737      25.97136269      49.31754712        0
C       44.40004144      25.79363493      50.38939752        0
O       43.02460539      26.05004649      50.70965817        0
C       43.92636658      23.40118400      45.44837222        0
C       43.61754685      22.41267805      44.50934115        0
H       41.37069169      20.56388366      41.57460551        0
H       40.82568554      21.87624004      42.62053409        0
H       42.45372853      21.91158407      41.94506795        0
H       41.27217099      18.97906760      44.94976340        0
H       40.89364983      18.75636131      43.24105955        0
H       40.10836016      20.04525937      44.15332577        0
H       43.55463445      19.91661928      41.18496633        0
H       45.49602961      18.53823722      40.82923790        0
H       46.93959037      16.72722153      40.81874886        0
H       47.83524772      18.19464622      41.32669348        0
H       48.55619782      15.28425645      41.95933216        0
H       50.05018937      17.93534600      42.68183714        0
H       50.73012701      16.25185633      42.86631494        0
H       45.66353320      17.62024520      45.03338737        0
H       43.69380920      19.02703032      45.41632023        0
H       40.87662832      21.10499903      46.04594562        0
H       41.41531344      22.80793554      47.66117632        0
H       41.73667599      25.04347487      48.32192657        0
H       42.78533568      23.90949326      49.23887159        0
H       43.34566096      26.88460750      48.73730834        0
H       45.10790698      26.59693554      50.55295388        0
H       44.78704875      24.80076242      50.58167598        0
H       44.78473504      24.04907779      45.28238197        0
H       44.25485204      22.31662646      43.63180847        0
C       13.29414811       6.62967838      48.76807770        0
C       13.51477219       7.73877464      49.82989653        0
C       13.27119864       9.08293966      49.09458110        0
C       12.50423569       7.68822002      51.00142357        0
C       11.42542921       6.79036699      51.04436677        0
C       10.53607168       6.77082387      52.12891901        0
C       10.70462905       7.65098081      53.19599360        0
O        9.91318963       7.73111164      54.30763900        0
C        8.95737429       6.68908990      54.49460680        0
C        8.28981369       6.90973669      55.81237334        0
C        8.87724265       6.36932863      57.08946142        0
O        7.77539842       5.72172520      56.43144129        0
C       11.76044023       8.55875229      53.16252807        0
C       12.65001331       8.57648606      52.08457956        0
C       14.96393558       7.56559407      50.34596104        0
C       15.99807714       8.46753500      50.04629568        0
C       17.30287464       8.26619054      50.52267121        0
C       17.60404728       7.15649968      51.30821565        0
O       18.82801951       6.84071637      51.83020666        0
C       19.91209760       7.71933586      51.52099048        0
C       21.15164420       7.15394822      52.13700419        0
C       21.59461219       7.55172481      53.51928225        0
O       22.20723252       8.10195351      52.34366207        0
C       16.58928537       6.25243343      51.61653010        0
C       15.28934502       6.45110284      51.14221107        0
H       12.31150766       6.71734341      48.28902467        0
H       14.04706805       6.69071872      47.97216698        0
H       13.36272274       5.62325088      49.19699822        0
H       13.49032730       9.95062600      49.72753327        0
H       12.22526710       9.17251195      48.77532193        0
H       13.88985228       9.16924519      48.19281594        0
H       11.24779108       6.08135630      50.23951263        0
H        9.72085183       6.05522696      52.10049860        0
H        8.19558113       6.72897897      53.70778297        0
H        9.45488414       5.71123530      54.47713258        0
H        7.69120134       7.81007378      55.84631825        0
H        9.85242082       5.89601685      57.04957070        0
H        8.66833730       6.89609548      58.01304029        0
H       11.90089937       9.25536837      53.98520740        0
H       13.47104692       9.29007871      52.10400394        0
H       15.81974392       9.34643680      49.43354774        0
H       18.05649294       9.00009109      50.25582699        0
H       20.05792569       7.77532961      50.43394803        0
H       19.70958487       8.72221714      51.92003425        0
H       21.41239601       6.17445492      51.75824195        0
H       22.17264190       6.83992083      54.09576549        0
H       20.95527121       8.19930059      54.10616402        0
H       16.80853479       5.38189034      52.23150973        0
H       14.52523350       5.72272465      51.40875602        0
C       50.04225494      47.73761773      76.12684307        0
C       50.49182328      46.26242967      76.29398737        0
C       50.89273303      46.10862730      77.78476322        0
C       49.36378771      45.23498195      76.03302315        0
C       48.03441753      45.60601056      75.77433358        0
C       47.04251210      44.64361152      75.53453367        0
C       47.35754622      43.28631082      75.54951065        0
O       46.48820435      42.25448948      75.33009726        0
C       45.19385028      42.59605371      74.83782634        0
C       44.45759825      41.32595940      74.56282780        0
C       44.58668784      40.61481237      73.24158846        0
O       43.44223925      41.42672445      73.55380252        0
C       48.66815292      42.90002686      75.81969770        0
C       49.65852123      43.85796913      76.05452730        0
C       51.66691019      46.05091810      75.30868425        0
C       52.99798275      45.88675771      75.72586853        0
C       54.03704286      45.71170892      74.79867828        0
C       53.76895455      45.69902240      73.43223525        0
O       54.68390155      45.54269981      72.42787627        0
C       56.05329133      45.40350788      72.81285601        0
C       56.87350534      45.30853165      71.56632469        0
C       57.20714440      43.97943885      70.94396080        0
O       58.16077384      44.70090068      71.73782590        0
C       52.45338955      45.85879980      73.00107958        0
C       51.41742742      46.03402681      73.92323517        0
H       49.25483911      48.00454901      76.84202363        0
H       50.87924979      48.42640938      76.29741247        0
H       49.65761448      47.94415373      75.12137492        0
H       51.31843239      45.12235614      78.00287939        0
H       50.02280000      46.23675356      78.44105783        0
H       51.63357830      46.86003893      78.08458017        0
H       47.73371750      46.65052669      75.74969197        0
H       46.03368100      44.99497577      75.34407881        0
H       44.63906572      43.16294845      75.59403804        0
H       45.28258670      43.19258979      73.92115215        0
H       44.24478753      40.75021225      75.45351445        0
H       45.30485444      40.99073023      72.52081786        0
H       44.44708940      39.54045454      73.22183444        0
H       48.92741507      41.84449080      75.84045290        0
H       50.67333780      43.51565536      76.24598643        0
H       53.26375576      45.89400415      76.77897981        0
H       55.04361503      45.58989880      75.18562938        0
H       56.38074929      46.28594042      73.37867091        0
H       56.18236923      44.50133000      73.42558122        0
H       56.80314866      46.18581015      70.93680755        0
H       57.37482672      43.94313610      69.87453061        0
H       56.77386967      43.08161726      71.36672657        0
H       52.22774847      45.84848678      71.93661010        0
H       50.40340532      46.15215852      73.54474940        0
C       10.55910232      25.59997279      72.59287981        0
C        9.83841002      26.22660465      73.81523976        0
C       10.66808736      25.80614006      75.05686831        0
C        9.82086071      27.77440942      73.80082454        0
C       10.48647264      28.53907167      72.82919704        0
C       10.43915944      29.94087518      72.84653735        0
C        9.72541719      30.61088649      73.83819901        0
O        9.59969662      31.96614077      73.96482037        0
C       10.06141852      32.76080368      72.87409906        0
C        9.72598216      34.18580304      73.17022421        0
C        8.38551229      34.76796788      72.80650420        0
O        9.55759572      35.01633477      72.01216439        0
C        9.07201234      29.86830898      74.81878404        0
C        9.11462343      28.47135837      74.80031723        0
C        8.39768478      25.66033790      73.80880518        0
C        7.93371481      24.73244655      74.75563938        0
C        6.62320305      24.23238693      74.70594977        0
C        5.74687037      24.64733147      73.70641943        0
O        4.45264715      24.23741522      73.54132355        0
C        3.95473697      23.26988154      74.46802534        0
C        2.55637818      22.92572614      74.06582938        0
C        1.37174106      23.66160674      74.63173939        0
O        1.75120614      22.36259978      75.10999169        0
C        6.19045495      25.56895748      72.75986065        0
C        7.49566363      26.06741048      72.80748312        0
H       11.61670972      25.88770453      72.55498174        0
H       10.52478766      24.50398599      72.63439689        0
H       10.10234867      25.89868940      71.64223997        0
H       10.19877230      26.11725062      75.99733575        0
H       11.66874476      26.25555068      75.03162395        0
H       10.80633850      24.71886154      75.10240294        0
H       11.05690733      28.06806312      72.03245562        0
H       10.97730704      30.47384524      72.06948514        0
H       11.14935810      32.67274011      72.77589531        0
H        9.57974827      32.44055483      71.94165311        0
H       10.26272151      34.58690754      74.01941320        0
H        7.62466257      34.10423745      72.41007337        0
H        8.00338397      35.58743517      73.40364236        0
H        8.51614165      30.37752737      75.60205182        0
H        8.57776574      27.92784112      75.57495315        0
H        8.57668824      24.37110020      75.55297566        0
H        6.32630099      23.51814096      75.46717132        0
H        4.56330283      22.35659201      74.42787231        0
H        3.96990205      23.68103196      75.48623138        0
H        2.48738856      22.49080675      73.07742409        0
H        0.47486306      23.72801703      74.02815369        0
H        1.54604888      24.51010711      75.28151274        0
H        5.51651655      25.90476473      71.97426784        0
H        7.80128224      26.78824228      72.05088138        0
C       10.45902601      15.19204217      64.55710592        0
C       10.33140796      14.82306215      66.05837075        0
C       10.13817650      13.28434603      66.10092361        0
C       11.60379964      15.13017196      66.88475951        0
C       12.79617669      15.59861362      66.30977517        0
C       13.92550903      15.87308404      67.09518383        0
C       13.88858851      15.68362396      68.47521200        0
O       14.91455856      15.91487797      69.34840146        0
C       16.05251964      16.60614664      68.83699026        0
C       16.98974066      16.85119727      69.97382700        0
C       16.85670672      18.06754239      70.85182138        0
O       17.84575526      17.99141800      69.81142267        0
C       12.71878579      15.20484951      69.06022726        0
C       11.59127492      14.93504993      68.27948711        0
C        9.11856399      15.61766238      66.60059636        0
C        7.90138615      15.01290828      66.95485062        0
C        6.82031270      15.77187382      67.42942544        0
C        6.93100391      17.15399704      67.55858311        0
O        5.95846581      18.00742936      68.00144275        0
C        4.69543436      17.43177662      68.34230584        0
C        3.77593385      18.54266749      68.73734015        0
C        3.64400430      18.98207073      70.17074829        0
O        2.66155595      18.14268367      69.54595816        0
C        8.13238208      17.77003687      67.21315480        0
C        9.20983991      17.01564169      66.73958799        0
H       11.25315002      14.61764892      64.06496904        0
H        9.52687631      14.97972148      64.01849186        0
H       10.68029708      16.25511061      64.40711860        0
H        9.94289572      12.91608707      67.11471657        0
H       11.03350115      12.76544315      65.73615521        0
H        9.30175286      12.96348146      65.46783374        0
H       12.87986348      15.76510775      65.23864591        0
H       14.81724212      16.22962186      66.59004727        0
H       16.56540734      15.98964355      68.09007538        0
H       15.74565127      17.55674573      68.38288214        0
H       17.41042598      15.94478369      70.38799383        0
H       16.00236803      18.71953815      70.70487003        0
H       17.20274460      18.00054658      71.87646378        0
H       12.67719700      15.04662864      70.13495538        0
H       10.69203669      14.57760970      68.77677483        0
H        7.75896402      13.93958713      66.86866005        0
H        5.90740604      15.24429034      67.68635635        0
H        4.26547223      16.91643051      67.47304559        0
H        4.81656396      16.72205433      69.17154652        0
H        3.60065839      19.25869643      67.94522871        0
H        3.36821083      20.01092499      70.36699569        0
H        4.29067831      18.53500761      70.91538832        0
H        8.23505576      18.84891617      67.31109919        0
H       10.13167597      17.53550850      66.48384558        0
C       42.60858572       8.18658371      53.31391717        0
C       43.66247112       7.21212457      52.72571341        0
C       43.03615660       5.79680660      52.83249164        0
C       43.96048018       7.44981577      51.22541048        0
C       43.26522655       8.38801016      50.44552505        0
C       43.57146159       8.57920444      49.09007046        0
C       44.58030883       7.83440827      48.48241768        0
O       44.97539112       7.92632786      47.17703897        0
C       44.45794045       9.02068365      46.42273172        0
C       45.10165740       8.99435384      45.07522809        0
C       46.42541204       9.66751817      44.82504605        0
O       45.18362833      10.27031509      44.42373507        0
C       45.26966608       6.88848758      49.23735270        0
C       44.96862026       6.69990968      50.58918018        0
C       44.94369124       7.39128064      53.57587032        0
C       45.40997478       6.41848440      54.47531050        0
C       46.56935539       6.62628740      55.23860879        0
C       47.28815215       7.81322211      55.12149328        0
O       48.42523261       8.14341155      55.80583581        0
C       48.91286150       7.19054947      56.75298104        0
C       50.11462399       7.77937882      57.41980840        0
C       51.50323837       7.54154154      56.89035297        0
O       50.99571862       6.82381682      58.02500403        0
C       46.84039123       8.78844529      54.23234469        0
C       45.68540405       8.58336019      53.47192527        0
H       41.63603320       8.07834980      52.81875431        0
H       42.44883256       7.99600723      54.38267709        0
H       42.91210583       9.23548573      53.21773135        0
H       43.73365675       5.00770985      52.52860800        0
H       42.15061483       5.70931066      52.19055500        0
H       42.71274667       5.57318464      53.85658177        0
H       42.46992914       8.99653149      50.86889898        0
H       42.99541200       9.31729755      48.54156749        0
H       43.37513674       8.91229921      46.29311447        0
H       44.67551291       9.96804766      46.93183354        0
H       44.82921535       8.12991297      44.48479333        0
H       46.95621225      10.09298513      45.66992283        0
H       47.06337354       9.26992587      44.04463066        0
H       46.05525511       6.29597132      48.77520731        0
H       45.54100815       5.96244008      51.14792760        0
H       44.88498801       5.47720190      54.60987382        0
H       46.87681175       5.83532039      55.91506882        0
H       48.15159009       6.99240244      57.51931388        0
H       49.17810529       6.25471626      56.24319663        0
H       49.90279656       8.69227206      57.96074696        0
H       52.25733292       8.29676851      57.07498717        0
H       51.62163116       6.99888062      55.96081342        0
H       47.39284685       9.72010025      54.12781064        0
H       45.37169554       9.36923170      52.78676810        0
C       51.23697794      47.51327846      19.31617183        0
C       51.44594080      47.26781786      20.83350908        0
C       51.90725843      45.79235164      20.96382379        0
C       52.56630686      48.13613366      21.45562078        0
C       53.38656847      48.98687275      20.69718722        0
C       54.38617896      49.76419238      21.30063182        0
C       54.58957431      49.70721817      22.67799171        0
O       55.52352306      50.41199983      23.38479816        0
C       56.21047452      51.44994759      22.68829880        0
C       57.08886535      52.15662487      23.66802712        0
C       56.57074137      53.29451990      24.50755679        0
O       57.37680583      53.52352939      23.33954302        0
C       53.79513005      48.85706764      23.44350371        0
C       52.79578943      48.08517574      22.84423002        0
C       50.08525321      47.55657633      21.51287382        0
C       49.27303080      46.55082354      22.06196542        0
C       48.03837224      46.85357376      22.65688583        0
C       47.58641455      48.16948675      22.71438458        0
O       46.40753598      48.59884611      23.25862495        0
C       45.54034946      47.59995016      23.79992579        0
C       44.29832309      48.28064255      24.27913369        0
C       44.16394291      48.76358554      25.69823465        0
O       43.54747239      47.54565078      25.25468408        0
C       48.38073112      49.18001925      22.17584902        0
C       49.61036006      48.88007827      21.58226576        0
H       52.13430118      47.26193898      18.73789966        0
H       50.41870482      46.89500903      18.92596641        0
H       50.98376663      48.55645550      19.09427702        0
H       51.99852267      45.47432496      22.00883827        0
H       52.88805278      45.64420517      20.49476360        0
H       51.20922326      45.10464987      20.47069647        0
H       53.27050888      49.07088185      19.61945148        0
H       54.98841447      50.39898200      20.65889622        0
H       56.84127847      51.02334711      21.90019341        0
H       55.49055390      52.15005543      22.24604965        0
H       57.88902259      51.53865393      24.05267785        0
H       55.51344198      53.53199749      24.45949261        0
H       57.02938431      53.46914173      25.47361919        0
H       53.94629534      48.79782296      24.51841912        0
H       52.18622971      47.44581149      23.47931922        0
H       49.57455626      45.50760559      22.03938526        0
H       47.45853880      46.03098130      23.06295383        0
H       45.26258606      46.87576076      23.02245577        0
H       46.03666486      47.08027415      24.63036307        0
H       43.75471627      48.78785604      23.49294951        0
H       43.51499827      49.60893969      25.89153074        0
H       45.01820049      48.68603399      26.35912135        0
H       48.04232121      50.21346888      22.21554937        0
H       50.20157424      49.69933386      21.17639204        0
C       35.06708767      10.92324072       9.53484545        0
C       36.55978288      10.81915476       9.12587622        0
C       37.03365839      12.27578659       8.87998571        0
C       37.47022124      10.24138583      10.23650688        0
C       37.00688038       9.94022207      11.52740705        0
C       37.86292657       9.40974996      12.50381708        0
C       39.20404774       9.16947192      12.21159034        0
O       40.13651929       8.65600068      13.06914320        0
C       39.65474686       8.12473117      14.30202489        0
C       40.81331737       7.51989036      15.02501369        0
C       41.23890821       6.09735846      14.77333325        0
O       40.46956499       6.46198604      15.93160746        0
C       39.68402549       9.47682113      10.94073863        0
C       38.83125050      10.00137395       9.96541977        0
C       36.60358239       9.92863656       7.86039308        0
C       36.89764075      10.42762071       6.58082674        0
C       36.91305051       9.58826951       5.45600593        0
C       36.63242496       8.23037639       5.58474759        0
O       36.60913153       7.30798077       4.57531930        0
C       36.87345093       7.78454498       3.25401920        0
C       36.73658542       6.63032284       2.31346037        0
C       37.91852824       5.77762216       1.93789116        0
O       37.41164744       6.79293167       1.05905298        0
C       36.34029969       7.71836362       6.84753856        0
C       36.32378032       8.55315039       7.96876608        0
H       34.92674452      11.59971520      10.38657622        0
H       34.45868156      11.31405056       8.70949830        0
H       34.64294450       9.95144360       9.81284643        0
H       38.05812621      12.32168261       8.49283632        0
H       37.01387643      12.85790937       9.80985890        0
H       36.38746128      12.79629108       8.16244427        0
H       35.97003602      10.10678443      11.80892513        0
H       37.44428830       9.20156194      13.48303607        0
H       39.23789073       8.92641195      14.92214632        0
H       38.88448436       7.36658889      14.11245438        0
H       41.55348254       8.24522411      15.33508198        0
H       40.74720070       5.54380945      13.98061956        0
H       42.28016485       5.83914421      14.92575607        0
H       40.72937309       9.30019263      10.70020846        0
H       39.24146084      10.21301326       8.98021711        0
H       37.11848085      11.47927953       6.42279344        0
H       37.14797476      10.03563773       4.49557443        0
H       36.13977024       8.55176888       2.97269632        0
H       37.88712367       8.20363158       3.20061302        0
H       35.74584312       6.19529539       2.30711527        0
H       37.73801319       4.74551592       1.66350605        0
H       38.86866446       5.95891081       2.42463245        0
H       36.12151756       6.65885469       6.96454596        0
H       36.09394568       8.11253258       8.93751754        0
C       51.78247494      33.69501612      27.63048756        0
C       52.59486865      34.81784771      28.32726184        0
C       52.64969848      35.99141141      27.31407954        0
C       51.92083472      35.37126798      29.60617531        0
C       50.64542849      34.96970772      30.03500618        0
C       50.07272278      35.48944190      31.20525267        0
C       50.76273231      36.42503613      31.97355359        0
O       50.31889987      37.00352942      33.12980230        0
C       49.14116451      36.45192750      33.71548478        0
C       48.90442001      37.15006609      35.01447877        0
C       49.55468466      36.67840051      36.28835282        0
O       48.18101953      36.38117482      35.98645483        0
C       52.02254570      36.84601396      31.55456180        0
C       52.59635757      36.32579497      30.39105852        0
C       53.98178993      34.21304626      28.65445169        0
C       55.15900948      34.58695558      27.98580268        0
C       56.39538146      34.00338339      28.30328902        0
C       56.48251337      33.03040648      29.29572179        0
O       57.61737425      32.38188780      29.69798544        0
C       58.83038446      32.71408064      29.01896680        0
C       59.91820325      31.85080447      29.57305739        0
C       60.77142560      32.30461695      30.72683611        0
O       61.24602352      32.35340917      29.37313222        0
C       55.32430370      32.64890991      29.97036688        0
C       54.09196024      33.22861523      29.65482869        0
H       50.80266382      34.05388989      27.29293902        0
H       52.31001365      33.31832423      26.74510946        0
H       51.60946700      32.83626468      28.28941534        0
H       53.28266533      36.81528399      27.66352529        0
H       51.64910106      36.40575650      27.13788260        0
H       53.03853338      35.66823910      26.34056609        0
H       50.06378431      34.24202599      29.47446090        0
H       49.08271975      35.14089340      31.48071230        0
H       48.27732837      36.62676383      33.06415454        0
H       49.26824316      35.37426657      33.87833116        0
H       48.66285574      38.19844209      34.90200499        0
H       50.28118891      35.87501067      36.23052455        0
H       49.74920758      37.40815295      37.06536306        0
H       52.57012179      37.57975578      32.14072507        0
H       53.58896174      36.66865350      30.10667680        0
H       55.14725618      35.33672755      27.20003236        0
H       57.26760335      34.33631801      27.74998990        0
H       58.73404799      32.50627773      27.94490923        0
H       59.06880778      33.77518726      29.17136514        0
H       59.74547779      30.79284939      29.42555675        0
H       61.19615791      31.54954958      31.37690680        0
H       60.53509754      33.24257580      31.21358425        0
H       55.37679022      31.89177199      30.75017639        0
H       53.21189689      32.90457843      30.20794355        0
C       44.54069559      47.76070552      54.27800783        0
C       43.87371630      46.36045045      54.30356354        0
C       42.36066408      46.61661464      54.53126800        0
C       43.99358954      45.58983662      52.96640232        0
C       44.55868102      46.14810780      51.80846774        0
C       44.65630670      45.41306128      50.61776704        0
C       44.18900018      44.10168194      50.55739448        0
O       44.22732870      43.28174098      49.46433431        0
C       44.99803142      43.72847591      48.35042478        0
C       44.99677113      42.64152659      47.32603696        0
C       46.00904985      41.52710082      47.36364806        0
O       46.13815497      42.63457606      46.45630475        0
C       43.61153508      43.53746516      51.69233930        0
C       43.51750986      44.26714667      52.88076342        0
C       44.55181022      45.57594032      55.45296388        0
C       43.89865822      45.25889809      56.65530418        0
C       44.55448920      44.55785239      57.67921355        0
C       45.87991361      44.15951835      57.52500926        0
O       46.63369442      43.47862929      58.44070916        0
C       46.01218925      43.16519858      59.68902990        0
C       47.02726711      42.48278119      60.54899228        0
C       47.16546969      40.98417494      60.56378641        0
O       46.48068854      41.68858758      61.61021639        0
C       46.54245344      44.46443068      56.33748884        0
C       45.89092330      45.16328422      55.31699622        0
H       44.07176915      48.41919780      53.53689033        0
H       44.45161668      48.25748302      55.25236162        0
H       45.60988188      47.70821916      54.04208949        0
H       41.79469735      45.68679197      54.66025202        0
H       41.91907340      47.14733717      53.67847631        0
H       42.18377503      47.23506627      55.41985633        0
H       44.93991003      47.16626009      51.79998090        0
H       45.10035648      45.90264030      49.75718454        0
H       44.54258228      44.62245702      47.90954437        0
H       46.02419484      43.95484110      48.66628624        0
H       44.02097432      42.45397228      46.89855613        0
H       46.68517733      41.47198567      48.21005323        0
H       45.73075094      40.56734245      46.94467754        0
H       43.23727955      42.51737501      51.65838492        0
H       43.07425105      43.78483165      53.74943012        0
H       42.86700387      45.55009470      56.83030420        0
H       43.99396607      44.34365850      58.58347633        0
H       45.68947806      44.08512369      60.19465594        0
H       45.14680697      42.50936575      59.52466744        0
H       47.89172993      43.09690372      60.76443837        0
H       48.13495456      40.56224355      60.79871013        0
H       46.56963268      40.39819719      59.87520103        0
H       47.57751171      44.15755786      56.20111076        0
H       46.44356768      45.37857656      54.40393499        0
C        7.94949536      45.08927962      68.25763973        0
C        8.25307849      44.45959797      69.64240217        0
C        7.13742782      43.40879817      69.88310903        0
C        9.59772125      43.69460352      69.69657538        0
C       10.41366208      43.49888967      68.57063388        0
C       11.63003243      42.80647918      68.66338726        0
C       12.05800235      42.29196777      69.88562118        0
O       13.21775359      41.60372240      70.10888824        0
C       14.17268291      41.58940396      69.04952325        0
C       15.39585657      40.88909249      69.54373058        0
C       16.47891377      41.62966260      70.28306178        0
O       16.61494486      41.27990107      68.89540050        0
C       11.25360401      42.46359808      71.00962857        0
C       10.04339623      43.15709026      70.91966486        0
C        8.24152607      45.62406796      70.66233591        0
C        7.22827145      45.79544594      71.61977529        0
C        7.24767751      46.87391683      72.51782523        0
C        8.28019682      47.80744623      72.47750692        0
O        8.41657154      48.90107416      73.28724863        0
C        7.38812239      49.12545923      74.25407635        0
C        7.70716911      50.39418933      74.97805491        0
C        8.51153152      50.39269956      76.25011560        0
O        7.08264488      50.52792761      76.26171055        0
C        9.29465099      47.65143481      71.53480948        0
C        9.27640496      46.57826024      70.63912179        0
H        7.86425480      44.32543388      67.47531437        0
H        7.00061514      45.64011872      68.27469405        0
H        8.72500192      45.79736121      67.94334423        0
H        7.19568196      42.95935956      70.88117556        0
H        7.20528694      42.58978465      69.15610531        0
H        6.13775016      43.84813316      69.77827247        0
H       10.12878280      43.87998473      67.59305932        0
H       12.21298360      42.68624201      67.75609403        0
H       13.77709992      41.03458528      68.19120977        0
H       14.41615766      42.61515174      68.74524944        0
H       15.23615285      39.83999509      69.75345719        0
H       16.31081654      42.67029998      70.53880564        0
H       17.07930649      41.08010238      70.99834833        0
H       11.57182432      42.06256348      71.96864426        0
H        9.45187083      43.28337161      71.82400920        0
H        6.39692651      45.10014275      71.69154026        0
H        6.43537481      46.94946042      73.23351643        0
H        6.41684021      49.24396355      73.75544815        0
H        7.34315040      48.28393442      74.95822955        0
H        7.73782900      51.26213365      74.33261546        0
H        9.09730372      51.27270061      76.48588084        0
H        8.93358916      49.45879669      76.59973578        0
H       10.10963236      48.37126000      71.49270743        0
H       10.08972618      46.49126286      69.92052075        0
C        6.98278970      50.04520795      69.36949580        0
C        7.17529739      50.03104999      67.83035024        0
C        8.51516486      49.29075157      67.57833865        0
C        6.08363685      49.23560503      67.07420213        0
C        5.07587059      48.50741466      67.72685329        0
C        4.09928666      47.80590931      67.00451931        0
C        4.10917534      47.81538855      65.61112477        0
O        3.21754573      47.17796601      64.79427598        0
C        2.05593259      46.62818711      65.41294173        0
C        1.17421688      46.08786705      64.33523006        0
C        0.17511516      46.96388494      63.62638874        0
O       -0.22222770      46.05137241      64.66363555        0
C        5.11075066      48.51993918      64.94752734        0
C        6.08197320      49.22300711      65.66589353        0
C        7.18826929      51.51188153      67.37939758        0
C        8.34583477      52.16600444      66.92672675        0
C        8.31786512      53.51500831      66.54023480        0
C        7.13149716      54.24177761      66.59970132        0
O        6.96788115      55.55614104      66.25914251        0
C        8.13070256      56.26348096      65.82287567        0
C        7.73554671      57.68230011      65.56516282        0
C        7.29174369      58.13967682      64.20171684        0
O        8.61500852      58.40271806      64.69153068        0
C        5.97314415      53.60760703      67.04487690        0
C        5.99946278      52.26426464      67.43092294        0
H        7.03383997      49.03500670      69.79334310        0
H        7.76449008      50.63972520      69.85896693        0
H        6.01978113      50.47778441      69.66456142        0
H        8.80460221      49.29982068      66.52113991        0
H        8.44723139      48.23947654      67.88514198        0
H        9.33863414      49.73822138      68.14845308        0
H        5.02028507      48.46691460      68.81189323        0
H        3.34954575      47.26003333      67.56788248        0
H        2.33619105      45.80414324      66.07883856        0
H        1.52943351      47.40225035      65.98534529        0
H        1.60317457      45.24496443      63.81024780        0
H        0.17304879      48.02629893      63.84515807        0
H       -0.09605104      46.71195446      62.60799657        0
H        5.13454003      48.53146348      63.86074067        0
H        6.83777801      49.77391156      65.11005959        0
H        9.29866085      51.64820220      66.86561659        0
H        9.24632058      53.96178317      66.19947230        0
H        8.89880674      56.25308720      66.60771346        0
H        8.52922063      55.80498643      64.90800720        0
H        7.35941757      58.19070263      66.44317946        0
H        6.60733798      58.97692903      64.14077651        0
H        7.18112687      57.40412706      63.41477849        0
H        5.03784669      54.16157432      67.09441896        0
H        5.07179196      51.80583557      67.76962198        0
C       47.06299462      48.70860262      31.56768415        0
C       47.48147523      48.70817621      33.06137170        0
C       48.64751989      47.69107177      33.17377651        0
C       48.03424578      50.06797835      33.55289814        0
C       48.23706070      51.16559708      32.70089648        0
C       48.73252713      52.38432117      33.18753485        0
C       49.03833510      52.53288052      34.53888514        0
O       49.52304723      53.66282274      35.13624395        0
C       49.52001679      54.85642537      34.35544129        0
C       49.97677024      55.97790724      35.22978992        0
C       49.00931599      56.74246388      36.09440141        0
O       49.49091594      57.27313417      34.84825056        0
C       48.85775813      51.44948838      35.39536612        0
C       48.36002679      50.23582881      34.91274649        0
C       46.22272128      48.30304357      33.86622864        0
C       46.09127578      47.06277301      34.51213617        0
C       44.92643650      46.72857097      35.22025213        0
C       43.86491128      47.62662236      35.29684678        0
O       42.67837696      47.42595750      35.94659416        0
C       42.49593805      46.16283011      36.59005154        0
C       41.12073699      46.14044722      37.17650945        0
C       40.86246666      46.58054614      38.59240100        0
O       40.93347666      45.19213902      38.23543974        0
C       43.97940643      48.86250912      34.66311966        0
C       45.13860441      49.19662494      33.95677722        0
H       47.91486178      48.91485642      30.90848695        0
H       46.65583620      47.73340417      31.27222138        0
H       46.29108637      49.45637728      31.35190114        0
H       48.96787438      47.53628727      34.21056972        0
H       49.52535906      48.03582363      32.61300298        0
H       48.37109608      46.71119890      32.76536445        0
H       48.01412930      51.10520094      31.63849562        0
H       48.86982738      53.19317126      32.47733753        0
H       50.21958195      54.76181040      33.51718817        0
H       48.51110003      55.05632158      33.97314625        0
H       51.00732465      55.88557301      35.54527032        0
H       47.98141031      56.40000091      36.14652429        0
H       49.38227175      57.19239291      37.00686542        0
H       49.09760630      51.54889576      36.45101522        0
H       48.21835039      49.41885801      35.61714304        0
H       46.88613282      46.32324949      34.47991203        0
H       44.88774037      45.75460285      35.69737383        0
H       42.57548324      45.34815675      35.85790244        0
H       43.24990145      46.02881462      37.37719653        0
H       40.33620122      46.24252312      36.43830649        0
H       39.88645118      46.98403993      38.83261489        0
H       41.68034135      46.99705408      39.16698226        0
H       43.15942999      49.57590631      34.71621040        0
H       45.18874444      50.17358948      33.47878802        0
C       15.55415396      16.55277629      41.59604246        0
C       15.56320052      15.72127112      40.28655935        0
C       16.01592567      16.69720100      39.16879496        0
C       16.58421016      14.55779601      40.29552575        0
C       17.49003956      14.34155660      41.34648779        0
C       18.39459663      13.26979132      41.32025791        0
C       18.41497616      12.38953726      40.24022390        0
O       19.24143299      11.31041687      40.09523734        0
C       20.00534630      10.92587443      41.23668939        0
C       20.74070936       9.67145441      40.89536489        0
C       20.10661650       8.31718641      41.07411628        0
O       21.05774080       8.83655375      42.01860638        0
C       17.53379855      12.59826897      39.18198794        0
C       16.62891216      13.66320807      39.20869149        0
C       14.12235149      15.18692371      40.09997006        0
C       13.25343879      15.65584319      39.10104526        0
C       11.94853347      15.15460880      38.97472842        0
C       11.48167529      14.17401866      39.84632767        0
O       10.23766117      13.60601181      39.83638714        0
C        9.31523592      14.08006632      38.85291566        0
C        8.01505344      13.37247841      39.06376326        0
C        7.69048657      12.09227188      38.34205203        0
O        7.14838847      13.35306949      37.92174602        0
C       12.33140567      13.69627344      40.84224587        0
C       13.63112502      14.19499889      40.96989984        0
H       16.52204801      17.03624137      41.77549122        0
H       14.79984557      17.34851502      41.55237359        0
H       15.32349693      15.94108464      42.47593011        0
H       15.97124378      16.24101075      38.17309451        0
H       17.05126473      17.02390611      39.32772641        0
H       15.39497377      17.60118306      39.14437078        0
H       17.51646712      14.99676043      42.21369665        0
H       19.07076901      13.15911624      42.16169240        0
H       20.73824714      11.70326010      41.48069672        0
H       19.34409017      10.75943142      42.09637425        0
H       21.48839267       9.80666798      40.12544097        0
H       19.06290373       8.27011361      41.36572487        0
H       20.43228095       7.50947858      40.42938887        0
H       17.54232829      11.92308050      38.33001859        0
H       15.94639597      13.78235683      38.36984513        0
H       13.56424044      16.42345840      38.39826480        0
H       11.32726890      15.55844161      38.18181872        0
H        9.14869340      15.15852581      38.97641110        0
H        9.70208808      13.87766218      37.84524697        0
H        7.57559342      13.55961124      40.03469871        0
H        7.01448889      11.39337227      38.81921305        0
H        8.45071746      11.63651542      37.72005803        0
H       11.98186839      12.92819810      41.52926807        0
H       14.26367341      13.79246929      41.75939327        0
C       55.17879128       8.61607602      31.10028690        0
C       54.26076837       9.06674795      29.93394328        0
C       52.86168857       8.47163203      30.24250315        0
C       54.07670997      10.60112620      29.84438149        0
C       54.60399805      11.49259243      30.79257074        0
C       54.42176432      12.87807322      30.67080812        0
C       53.70576959      13.40425075      29.59739079        0
O       53.46040536      14.72853919      29.36370442        0
C       54.17147953      15.66738142      30.16825274        0
C       53.84366482      17.03764565      29.67252673        0
C       54.61877727      17.67095191      28.54727498        0
O       54.85590079      18.02414305      29.92039911        0
C       53.16266348      12.53333114      28.65588082        0
C       53.34710942      11.15283332      28.77349548        0
C       54.90023707       8.51309566      28.63743352        0
C       54.33884945       7.46269854      27.89295025        0
C       54.95852949       6.98015521      26.72971410        0
C       56.15559635       7.53580040      26.28531767        0
O       56.86234843       7.15873091      25.17688552        0
C       56.33771863       6.07207532      24.41088593        0
C       57.29248646       5.79403683      23.29431761        0
C       57.13887264       6.44753628      21.94729096        0
O       56.72661305       5.09241988      22.17932471        0
C       56.72546750       8.58004136      27.01122606        0
C       56.10994231       9.06130839      28.17045157        0
H       54.76511503       8.90185322      32.07494715        0
H       55.29869488       7.52536866      31.10858264        0
H       56.18379596       9.04799959      31.02972313        0
H       52.14486928       8.64872193      29.43235830        0
H       52.43725364       8.91591567      31.15156280        0
H       52.90982904       7.38825675      30.40785691        0
H       55.17155553      11.13648281      31.64878690        0
H       54.85155311      13.51321810      31.43849467        0
H       53.85057967      15.58952798      31.21322825        0
H       55.25114070      15.48408638      30.09929113        0
H       52.80792766      17.31251625      29.82014306        0
H       55.36307453      17.07306729      28.03235427        0
H       54.11430962      18.39943339      27.92361657        0
H       52.59670977      12.92910960      27.81632152        0
H       52.92041455      10.50758308      28.00846502        0
H       53.40969534       6.98965270      28.19730437        0
H       54.47347919       6.16678211      26.19970768        0
H       56.25862127       5.17108199      25.03379606        0
H       55.34883593       6.33519396      24.01226608        0
H       58.27820033       5.50340283      23.63307935        0
H       58.02867107       6.60229667      21.34944136        0
H       56.36668346       7.19499806      21.81475321        0
H       57.65928906       9.02627487      26.67511824        0
H       56.58652859       9.88051213      28.70637896        0
C       49.52854715      43.23755694       3.64019258        0
C       49.58576357      44.33468476       4.73530242        0
C       49.92156644      45.65541897       3.99388889        0
C       48.23532824      44.56526974       5.45597599        0
C       47.04670739      43.91834656       5.08117143        0
C       45.84430268      44.14870928       5.76582333        0
C       45.80277743      45.03365654       6.84140689        0
O       44.70101186      45.34226367       7.58935547        0
C       43.54071779      44.53706473       7.39005277        0
C       42.50736896      44.96861938       8.37837540        0
C       42.46209891      44.39117680       9.76854744        0
O       41.55983627      43.95298830       8.73881234        0
C       46.96926897      45.69564066       7.21688095        0
C       48.16909339      45.46384681       6.53841156        0
C       50.67641518      43.89062748       5.74013117        0
C       51.91807471      44.53615869       5.85978305        0
C       52.88600155      44.09268938       6.77434434        0
C       52.63513035      42.99156709       7.58907876        0
O       53.48847733      42.45603353       8.51390549        0
C       54.77382481      43.06775364       8.64232880        0
C       55.55326404      42.29075595       9.65443597        0
C       55.54232221      42.66536122      11.11206784        0
O       56.64159868      43.00587167      10.25429050        0
C       51.40746654      42.34038412       7.48449580        0
C       50.44262332      42.78033968       6.57355691        0
H       48.82916158      43.50218165       2.83795021        0
H       50.51200230      43.09299531       3.17542796        0
H       49.21780454      42.26560323       4.04058817        0
H       50.07990921      46.49257792       4.68353943        0
H       49.10750717      45.94441035       3.31734332        0
H       50.82692015      45.55765756       3.38222009        0
H       47.02243742      43.21742850       4.25040881        0
H       44.96002711      43.62012192       5.42505629        0
H       43.14238964      44.69090944       6.38075689        0
H       43.78636295      43.47710725       7.53207252        0
H       42.14727343      45.97513260       8.21297215        0
H       43.25845256      43.72188706      10.07589070        0
H       42.05340297      45.00235292      10.56450855        0
H       46.95069536      46.39330637       8.05038056        0
H       49.06145515      45.98873785       6.87287810        0
H       52.16797658      45.39615631       5.24522278        0
H       53.82494662      44.63510203       6.81824259        0
H       55.31061049      43.02917665       7.68502249        0
H       54.66344980      44.11206027       8.96366853        0
H       55.71421280      41.25819489       9.37377138        0
H       55.70426948      41.88230344      11.84262225        0
H       54.89091625      43.46557903      11.44049322        0
H       51.19568370      41.48006838       8.11625556        0
H       49.49546525      42.24550592       6.52568364        0
C       28.00250495       6.25671515      32.55784390        0
C       29.31491887       6.81444735      33.16836270        0
C       29.84056576       7.86429432      32.15430495        0
C       29.10933868       7.56116154      34.50865002        0
C       27.84267774       7.80289652      35.06447542        0
C       27.69937611       8.47662669      36.28641838        0
C       28.82099082       8.92594050      36.98056069        0
O       28.81707988       9.58973373      38.17551510        0
C       27.57677804       9.64552456      38.87757490        0
C       27.82372405      10.30740259      40.19354069        0
C       28.27470657       9.51973337      41.39531420        0
O       26.90813224       9.93555831      41.23405160        0
C       30.08434419       8.70822760      36.43609250        0
C       30.22897272       8.03321323      35.22074649        0
C       30.25883854       5.60160013      33.35385094        0
C       31.40535313       5.39457747      32.56938206        0
C       32.22760862       4.27325499      32.76043590        0
C       31.92077113       3.33161916      33.73940043        0
O       32.63074601       2.19820994      34.02509424        0
C       33.78731700       1.93795272      33.22670720        0
C       34.36589934       0.63187210      33.66830401        0
C       35.43071517       0.56226554      34.72965300        0
O       35.74739760       0.44222029      33.33486289        0
C       30.78766841       3.52255928      34.52791510        0
C       29.96722226       4.63846372      34.33839364        0
H       27.29312309       7.05885706      32.32097901        0
H       28.20097229       5.71608129      31.62381286        0
H       27.49484974       5.55646874      33.23127746        0
H       30.82129060       8.26363163      32.43756085        0
H       29.15424464       8.71715464      32.08004179        0
H       29.93634536       7.44154988      31.14659727        0
H       26.93444454       7.47328373      34.56596812        0
H       26.69323844       8.63480810      36.66076542        0
H       26.85147787      10.24600980      38.31688886        0
H       27.18044972       8.63332257      39.02721448        0
H       28.11067707      11.34664362      40.10560928        0
H       28.51338537       8.46971058      41.26465300        0
H       28.86610675      10.02700928      42.14833457        0
H       30.96812177       9.05830052      36.96352984        0
H       31.23383023       7.86923322      34.83726255        0
H       31.68816183       6.09455309      31.78849504        0
H       33.09899011       4.17159907      32.12159572        0
H       33.50758371       1.85461848      32.16799708        0
H       34.52183301       2.74440767      33.35373025        0
H       33.69054223      -0.20368964      33.53950644        0
H       35.49285942      -0.33456466      35.33376379        0
H       35.72197874       1.47325978      35.23738967        0
H       30.53623087       2.79681769      35.29875480        0
H       29.09330245       4.75169046      34.97783971        0
C       49.01784531      27.21385165      65.28049999        0
C       48.48474400      28.51354167      65.93840391        0
C       48.87296747      29.66560293      64.97464366        0
C       46.94338309      28.55442973      66.07533504        0
C       46.10149492      27.55739564      65.55672640        0
C       44.70886581      27.62733993      65.70931830        0
C       44.12551108      28.69821154      66.38360847        0
O       42.78853650      28.88196317      66.60106449        0
C       41.92953532      27.78452659      66.29758606        0
C       40.54440730      28.15714599      66.71400648        0
C       40.06010171      27.92794238      68.12147990        0
O       39.69760837      27.04691204      67.04499231        0
C       44.94467847      29.70390607      66.89100333        0
C       46.33281205      29.63340416      66.74355038        0
C       49.16277906      28.60868178      67.32678622        0
C       50.15067652      29.55838973      67.63477801        0
C       50.75122498      29.60179844      68.90262145        0
C       50.37898947      28.69456402      69.89134045        0
O       50.88518407      28.62480646      71.15988396        0
C       51.91470306      29.55594413      71.50030349        0
C       52.35694779      29.26111687      72.89784001        0
C       51.73324528      29.94991228      74.08177226        0
O       53.01108546      30.34912769      73.56419172        0
C       49.39895527      27.74662789      69.60309517        0
C       48.80036913      27.70155098      68.34057559        0
H       48.64641859      27.09712181      64.25523146        0
H       50.11384511      27.22001167      65.22725772        0
H       48.72961593      26.31596507      65.83933370        0
H       48.62647818      30.65246010      65.38315481        0
H       48.34529172      29.57188220      64.01720064        0
H       49.94675430      29.66154711      64.75030740        0
H       46.50335595      26.69960542      65.02311106        0
H       44.11339666      26.82674944      65.28277237        0
H       41.92848594      27.59213516      65.21869953        0
H       42.26056918      26.88535345      66.83230587        0
H       40.12611003      28.97158317      66.13797231        0
H       40.77053537      27.57411680      68.86085751        0
H       39.29051387      28.58321900      68.51195372        0
H       44.50321223      30.54838052      67.41423794        0
H       46.93862132      30.43111347      67.16821845        0
H       50.48228226      30.28576557      66.89945959        0
H       51.50780596      30.36002917      69.07705705        0
H       52.77551174      29.43302934      70.82951083        0
H       51.53239205      30.58292949      71.42848719        0
H       52.76803760      28.26751153      73.01872448        0
H       51.72105630      29.42660015      75.02998743        0
H       50.89219618      30.61179709      73.91719277        0
H       49.09557727      27.03266490      70.36620340        0
H       48.03666589      26.94741627      68.15758487        0
C       39.26693547       4.90374674      22.06721201        0
C       39.22093072       5.24848732      23.57892171        0
C       37.73028541       5.13511828      23.99355461        0
C       40.00253592       4.25141521      24.46839117        0
C       40.60594160       3.08712544      23.96625722        0
C       41.31298644       2.21277177      24.80481883        0
C       41.43157098       2.48240409      26.16679244        0
O       42.09226969       1.71593506      27.08578931        0
C       42.90708039       0.66089735      26.57851408        0
C       43.61787462       0.03433594      27.73308031        0
C       44.92948694       0.57795235      28.23529733        0
O       44.86597199      -0.59164618      27.40196274        0
C       40.82609836       3.62494042      26.68440223        0
C       40.12494283       4.49939860      25.84933844        0
C       39.79823882       6.67814920      23.71738075        0
C       39.01106396       7.79551782      24.04078241        0
C       39.57159072       9.07825204      24.14262750        0
C       40.93248495       9.27342654      23.92110405        0
O       41.60146678      10.46459504      23.98341480        0
C       40.82770409      11.62914640      24.27993396        0
C       41.74207420      12.81138592      24.23693555        0
C       42.44347467      13.30829464      25.47235394        0
O       41.27409280      13.96053061      24.95537003        0
C       41.72845439       8.17521605      23.60094522        0
C       41.17159293       6.89706344      23.49835758        0
H       38.80737238       3.92982696      21.85974814        0
H       38.72113160       5.64989375      21.47606819        0
H       40.29126101       4.87405567      21.67804977        0
H       37.56032741       5.44886013      25.02999358        0
H       37.37591680       4.10024833      23.90759250        0
H       37.08415467       5.74908935      23.35408924        0
H       40.54558511       2.82890818      22.91187465        0
H       41.75343026       1.32847488      24.35593318        0
H       42.28308336      -0.10171065      26.09885958        0
H       43.62978929       1.05572946      25.85337930        0
H       42.95558190      -0.46879221      28.42469169        0
H       45.30584442       1.49918927      27.80371263        0
H       45.17752405       0.43440857      29.28028320        0
H       40.90525927       3.84511188      27.74603404        0
H       39.68008682       5.38917187      26.28990018        0
H       37.94369374       7.70092593      24.21827705        0
H       38.90934871       9.89979543      24.39611986        0
H       40.04383475      11.76759856      23.52333480        0
H       40.37084656      11.53463105      25.27410007        0
H       42.20002613      12.96645019      23.26889910        0
H       43.39204479      13.81711913      25.35223509        0
H       42.34313523      12.74511191      26.39175521        0
H       42.79406218       8.31138643      23.42758661        0
H       41.82897211       6.06564284      23.24927967        0
C       53.37974360      48.63512133      56.47164671        0
C       52.14671761      49.55750787      56.28435362        0
C       51.13765173      48.74653676      55.42942184        0
C       51.42311074      49.90508198      57.60790971        0
C       51.78481601      49.35197853      58.84688246        0
C       51.10850188      49.69951671      60.02561429        0
C       50.05260214      50.60818377      59.99191107        0
O       49.31736242      51.02983379      61.06437861        0
C       49.80158024      50.67341386      62.35776453        0
C       48.92190870      51.32624959      63.37305478        0
C       49.18193506      52.73129115      63.84877753        0
O       49.55248959      51.58665923      64.63551035        0
C       49.67058413      51.15475475      58.76911565        0
C       50.34633957      50.81275769      57.59437299        0
C       52.66362291      50.83941524      55.58728043        0
C       52.36750575      51.15936380      54.25210513        0
C       52.86833148      52.32554453      53.65280066        0
C       53.67900391      53.19782902      54.37469319        0
O       54.23361643      54.35932295      53.91248271        0
C       53.97946948      54.70243073      52.54848178        0
C       54.72462671      55.96277391      52.24535208        0
C       54.08330031      57.31435212      52.40990088        0
O       54.22747781      56.70011319      51.12069125        0
C       53.98128477      52.89641863      55.70131045        0
C       53.48389629      51.73491487      56.29947992        0
H       53.09814850      47.66369521      56.89566879        0
H       53.87293414      48.43674901      55.51169892        0
H       54.13354898      49.07717697      57.13341394        0
H       50.25637710      49.33660002      55.15246375        0
H       50.77747672      47.86611183      55.97627495        0
H       51.59435295      48.38218881      54.50096294        0
H       52.60153905      48.63927050      58.93086110        0
H       51.43430688      49.23467127      60.95040609        0
H       49.74634885      49.58770790      62.49634217        0
H       50.83937568      51.00846235      62.47919001        0
H       47.90811538      50.94900592      63.37056386        0
H       49.96805571      53.30249940      63.36677832        0
H       48.33952349      53.32111921      64.19019853        0
H       48.84480447      51.86050865      58.72664915        0
H       50.02743870      51.27391746      56.66199866        0
H       51.74469113      50.51167783      53.64191174        0
H       52.60237491      52.51541683      52.61792289        0
H       54.34834367      53.91110673      51.88229819        0
H       52.90233318      54.84738317      52.39105123        0
H       55.79640868      55.86726752      52.35946347        0
H       54.72227135      58.15987849      52.63332272        0
H       53.08854585      57.37199124      52.83379095        0
H       54.61134249      53.56962939      56.27917728        0
H       53.74126546      51.53828607      57.33897289        0
C       10.55370199      54.02534042       9.69964982        0
C       10.79724624      54.59272556       8.27662873        0
C       10.64140951      56.13115143       8.40215632        0
C       12.22704687      54.33711017       7.74132852        0
C       13.23881744      53.74248287       8.51239679        0
C       14.52036574      53.52051621       7.98708064        0
C       14.82016828      53.89005400       6.67738745        0
O       16.02320080      53.72717046       6.04910844        0
C       16.99440985      52.92270799       6.71539842        0
C       18.17474942      52.78472558       5.81063869        0
C       18.24060017      51.70097292       4.76698574        0
O       18.95034134      51.59437172       6.01251578        0
C       13.83286686      54.49517067       5.90345207        0
C       12.55414756      54.71303617       6.42406645        0
C        9.74014663      53.93318852       7.35796669        0
C        8.65294514      54.63514898       6.81208212        0
C        7.70788111      53.99592106       5.99464014        0
C        7.82723524      52.63884651       5.70601915        0
O        6.97852231      51.89685903       4.93178231        0
C        5.84319076      52.57039032       4.38388630        0
C        5.03082264      51.56471196       3.63269997        0
C        5.24256801      51.32286342       2.16238957        0
O        4.15016133      52.11840785       2.64601626        0
C        8.90107819      51.92759892       6.23811265        0
C        9.84281348      52.56260094       7.05309737        0
H       11.21351962      54.49287499      10.44046785        0
H        9.52217629      54.20878004      10.02582903        0
H       10.71743819      52.94263228       9.74970136        0
H       10.70166259      56.63733232       7.43175646        0
H       11.42938910      56.55563957       9.03683766        0
H        9.68148474      56.40528455       8.85686151        0
H       13.05924976      53.43383880       9.53930281        0
H       15.25881588      53.05985979       8.63512163        0
H       17.32043818      53.41180291       7.64033268        0
H       16.57384604      51.93631821       6.94816930        0
H       18.69550367      53.71683092       5.63717244        0
H       17.36706520      51.07595174       4.61574773        0
H       18.82455142      51.88495897       3.87296518        0
H       14.05403776      54.79412696       4.88192743        0
H       11.80653347      55.17391168       5.78191778        0
H        8.50887424      55.69349481       7.00925928        0
H        6.89137304      54.59455172       5.60385592        0
H        5.22339465      52.98732495       5.18892091        0
H        6.17069037      53.37587621       3.71309967        0
H        4.65965387      50.76035463       4.25407143        0
H        5.00799701      50.34243878       1.76633383        0
H        6.05596445      51.83265905       1.66135449        0
H        9.00933794      50.86713795       6.01943965        0
H       10.66838030      51.97135094       7.44592083        0
C        6.02033590      32.05221006      15.63560656        0
C        6.25839849      31.48923905      17.06130588        0
C        5.46273790      32.41403434      18.01967654        0
C        5.70210904      30.05930602      17.26636435        0
C        4.95919055      29.37873851      16.28825005        0
C        4.47943742      28.07944623      16.51021585        0
C        4.73073178      27.43083113      17.71764519        0
O        4.32313513      26.17066740      18.05588347        0
C        3.77418135      25.36899067      17.01170275        0
C        3.50647101      24.00951319      17.56936123        0
C        4.57391514      22.94741412      17.59336564        0
O        3.53152214      22.94852237      16.60348836        0
C        5.45288941      28.09710641      18.70479859        0
C        5.93532039      29.39012371      18.48345188        0
C        7.78867454      31.52229670      17.29271684        0
C        8.41140990      32.41549278      18.17992986        0
C        9.80458349      32.42261480      18.35018373        0
C       10.60754631      31.53770604      17.63507113        0
O       11.97020125      31.44346585      17.70283568        0
C       12.64184244      32.35741723      18.57255008        0
C       14.11211644      32.11821631      18.44336368        0
C       14.83597100      31.16157231      19.35221259        0
O       14.89677045      32.58187255      19.55017406        0
C       10.00575819      30.64345034      16.75172912        0
C        8.61835617      30.63558482      16.58042017        0
H        4.95108613      32.13651698      15.40679113        0
H        6.45218882      33.05551884      15.53090328        0
H        6.47473163      31.42559882      14.85942714        0
H        5.63140078      32.16659604      19.07412072        0
H        4.38365144      32.33335821      17.83805551        0
H        5.73274249      33.46833601      17.88217426        0
H        4.73506499      29.83705416      15.32816872        0
H        3.90912147      27.60925877      15.71577672        0
H        2.82599801      25.79593978      16.66576269        0
H        4.47835123      25.30604190      16.17253456        0
H        2.73474968      23.99940584      18.32727938        0
H        5.57825588      23.21763243      17.28535670        0
H        4.52716488      22.19096941      18.36778706        0
H        5.65158119      27.60580589      19.65398212        0
H        6.50874465      29.86992459      19.27380859        0
H        7.83349155      33.13034984      18.75848056        0
H       10.22376954      33.13721541      19.05117262        0
H       12.42991687      33.39257575      18.27322280        0
H       12.31776904      32.19761696      19.60959324        0
H       14.48968158      32.28792245      17.44361178        0
H       15.72586066      30.67237986      18.97551204        0
H       14.26084880      30.57696192      20.05932406        0
H       10.61969036      29.94405759      16.18776759        0
H        8.18802991      29.91883951      15.88289391        0
C       16.76954816       6.33605512      66.99275190        0
C       15.73153997       7.45367942      67.27503485        0
C       14.93545908       6.98658861      68.52198226        0
C       16.36848694       8.81547676      67.64384641        0
C       17.75118787       8.99426507      67.81112008        0
C       18.28989697      10.24757306      68.13762258        0
C       17.45684072      11.35183418      68.30602879        0
O       17.85460736      12.62116280      68.62089284        0
C       19.25446317      12.88946372      68.56828534        0
C       19.45272343      14.34621701      68.83171185        0
C       19.38834848      15.36019869      67.72006233        0
O       20.64232576      14.90438647      68.25505543        0
C       16.08142389      11.18901055      68.15898029        0
C       15.54351964       9.94175545      67.82937225        0
C       14.86783821       7.57894486      65.99647454        0
C       13.52732820       7.16460734      65.93242117        0
C       12.78282417       7.28253266      64.74845448        0
C       13.36278230       7.81574986      63.60018324        0
O       12.75447097       7.98146460      62.38659448        0
C       11.39880158       7.54282264      62.27449683        0
C       10.96057890       7.76150506      60.86178641        0
C       10.28602382       9.03788927      60.43639448        0
O        9.54070989       7.83501890      60.67670281        0
C       14.69149364       8.23346858      63.64679375        0
C       15.43464494       8.11599457      64.82502080        0
H       17.38524727       6.12296023      67.87494485        0
H       16.27286989       5.39856369      66.71255775        0
H       17.44850003       6.59612966      66.17241222        0
H       14.10453920       7.65967672      68.76291784        0
H       15.58201418       6.94255300      69.40739164        0
H       14.51545619       5.98293577      68.38183983        0
H       18.44670049       8.16737951      67.69043809        0
H       19.36614029      10.31914641      68.25614532        0
H       19.77797316      12.32107302      69.34538314        0
H       19.65465676      12.62137708      67.58238694        0
H       19.17641420      14.64391929      69.83426980        0
H       19.09673366      15.02412002      66.73082036        0
H       19.07798361      16.36931795      67.96393660        0
H       15.41873791      12.04027548      68.29314184        0
H       14.46546054       9.85986872      67.70783576        0
H       13.02747194       6.73690862      66.79668311        0
H       11.75175054       6.94433566      64.76477426        0
H       11.32637144       6.47033464      62.49940971        0
H       10.76102827       8.11038768      62.96524522        0
H       11.54103832       7.20263000      60.13957801        0
H       10.39828798       9.35743257      59.40760636        0
H       10.19161659       9.84283198      61.15451425        0
H       15.15783421       8.65462958      62.75838764        0
H       16.46858052       8.45716546      64.81982124        0
C       12.01896959      24.22747336      44.92738669        0
C       12.38880500      25.35226158      45.92953536        0
C       13.53293562      26.15716227      45.25879217        0
C       11.23913002      26.35534991      46.19083335        0
C       10.01447216      26.31256979      45.50512890        0
C        8.99400408      27.23567821      45.77735683        0
C        9.17581062      28.22492134      46.74176360        0
O        8.26404536      29.17796582      47.10085014        0
C        6.93805347      29.02276070      46.59884805        0
C        6.09091104      30.09539798      47.20103556        0
C        5.42474119      29.91033898      48.53895877        0
O        4.69701067      29.77130643      47.30708229        0
C       10.39018179      28.29144266      47.42057419        0
C       11.40634381      27.36964001      47.15351175        0
C       12.81080980      24.64589370      47.24077333        0
C       14.13762765      24.60969019      47.70010894        0
C       14.48077388      23.94556630      48.88803144        0
C       13.50475261      23.30020216      49.64307213        0
O       13.70334367      22.61619346      50.81054608        0
C       15.04596200      22.53171260      51.29329982        0
C       15.03642418      21.69686795      52.53368495        0
C       14.88478771      22.31600514      53.89706862        0
O       16.16259758      21.89229183      53.39926639        0
C       12.18286699      23.32782252      49.20262825        0
C       11.83954013      23.98819313      48.01927272        0
H       11.77460145      24.63128953      43.93744935        0
H       12.85452145      23.52898681      44.79300710        0
H       11.15892303      23.63677451      45.26349141        0
H       13.94289279      26.92962522      45.91967153        0
H       13.17840749      26.66331910      44.35212934        0
H       14.36368006      25.50675273      44.95847156        0
H        9.81884655      25.56132561      44.74394267        0
H        8.07242094      27.15115466      45.21077907        0
H        6.92949499      29.14318256      45.50961115        0
H        6.54637275      28.03254879      46.86358864        0
H        6.36637209      31.09157380      46.88189477        0
H        5.65038330      29.01536648      49.10878122        0
H        5.22749525      30.79038836      49.13956665        0
H       10.54845725      29.06146053      48.17145725        0
H       12.33405294      27.44579037      47.71675671        0
H       14.93891883      25.09173209      47.14757006        0
H       15.52361643      23.95473643      49.18828421        0
H       15.68757283      22.04171463      50.54878660        0
H       15.43169521      23.53656263      51.51125513        0
H       14.68870020      20.68548112      52.36923384        0
H       14.43340957      21.72113576      54.68160948        0
H       14.69817619      23.38019710      53.96927042        0
H       11.40852867      22.83034264      49.78317064        0
H       10.79491530      23.98866297      47.71234251        0
C        8.51946376      37.90595389      35.50829765        0
C        7.45209575      38.94230058      35.94754674        0
C        6.83052291      39.49114208      34.63635772        0
C        6.28840633      38.32899827      36.76357530        0
C        6.15689553      36.94987130      36.99275060        0
C        5.09122001      36.43434357      37.74518608        0
C        4.13060288      37.28728891      38.28503325        0
O        3.05050658      36.91332963      39.03476603        0
C        3.01358354      35.55910780      39.48093768        0
C        1.82245761      35.40052342      40.36801200        0
C        1.89510118      35.70626911      41.84086980        0
O        1.93695587      34.35709739      41.34647597        0
C        4.23718228      38.65674241      38.05450305        0
C        5.30088496      39.17233341      37.30862755        0
C        8.20069257      40.01356544      36.77723527        0
C        8.42744968      41.32082519      36.31636798        0
C        9.12380399      42.25851009      37.09470432        0
C        9.61153500      41.90953450      38.35149918        0
O       10.30647923      42.72077238      39.20545899        0
C       10.58309402      44.04965540      38.75783600        0
C       11.39593138      44.72976200      39.81252187        0
C       10.74862689      45.53569484      40.90641796        0
O       11.36031162      46.16243291      39.76923756        0
C        9.39381801      40.61699750      38.82487293        0
C        8.70110711      39.68163055      38.05057758        0
H        8.09327266      37.14033220      34.84879494        0
H        9.33449021      38.38984671      34.95542528        0
H        8.97406748      37.38947524      36.36161873        0
H        6.12069336      40.30595146      34.82007783        0
H        6.28613147      38.70397422      34.09976930        0
H        7.59882662      39.87243727      33.95248291        0
H        6.87819928      36.23968200      36.59602181        0
H        5.04448214      35.35909421      37.88347729        0
H        2.90330244      34.88215308      38.62619673        0
H        3.93290253      35.31549148      40.02822617        0
H        0.88064526      35.52104858      39.84978515        0
H        2.80821738      36.14040252      42.23372442        0
H        0.99008671      36.02681077      42.34318896        0
H        3.49191036      39.33371248      38.46448514        0
H        5.35683667      40.24930363      37.16477851        0
H        8.07367554      41.64437519      35.34174477        0
H        9.26537745      43.25194184      36.68141662        0
H       11.16902563      44.02386643      37.82935256        0
H        9.64395297      44.59315421      38.58859849        0
H       12.34663440      44.24842924      40.00051657        0
H       11.26332727      45.61522574      41.85608871        0
H        9.66793814      45.55291531      40.97242374        0
H        9.76656752      40.33011970      39.80613460        0
H        8.54979860      38.68368372      38.45881190        0
C       49.46325144       3.75042970      15.71948128        0
C       48.45508136       4.83519553      16.18111415        0
C       47.04982480       4.29116293      15.81222531        0
C       48.44937780       5.06817781      17.71144161        0
C       49.20746378       4.29638842      18.60668146        0
C       49.18090834       4.54508423      19.98691242        0
C       48.39335822       5.57169263      20.50418991        0
O       48.28182716       5.91619036      21.82230786        0
C       49.20651521       5.31417942      22.72612425        0
C       48.98340148       5.91181037      24.07663835        0
C       49.66733892       7.18745981      24.49258991        0
O       50.13308400       5.90157599      24.93533786        0
C       47.62315881       6.33716484      19.63197927        0
C       47.65192517       6.09338021      18.25598170        0
C       48.83697158       6.13309953      15.42878864        0
C       48.05405771       6.68238339      14.40015915        0
C       48.44358462       7.85415956      13.73294169        0
C       49.62671876       8.50260408      14.07777809        0
O       50.12228190       9.64273446      13.50784685        0
C       49.36809396      10.21386527      12.43648216        0
C       50.11840382      11.40381331      11.92985544        0
C       49.86139543      12.78438339      12.47125403        0
O       49.32257937      12.35601829      11.21176259        0
C       50.41465459       7.97202444      15.09747298        0
C       50.02850177       6.80458274      15.76249844        0
H       49.22611805       2.76884334      16.14728404        0
H       49.44891778       3.63805093      14.62803554        0
H       50.49408698       3.99272008      16.00275689        0
H       46.25512795       5.01990389      16.00950412        0
H       46.81243889       3.39024276      16.39180548        0
H       46.98753093       4.01574233      14.75221384        0
H       49.83993291       3.48401399      18.25729307        0
H       49.78692176       3.91111261      20.62589426        0
H       49.02582263       4.23510832      22.78911187        0
H       50.23574498       5.49699370      22.39252864        0
H       48.01939244       5.66692306      24.50185906        0
H       50.25472537       7.72286922      23.75441535        0
H       49.17449304       7.81906564      25.22217864        0
H       46.99941394       7.13764791      20.02181667        0
H       47.04808395       6.72401482      17.60685632        0
H       47.12501249       6.21452351      14.08756793        0
H       47.79427419       8.22737118      12.94753386        0
H       49.26618754       9.49126863      11.61579245        0
H       48.37331045      10.51220885      12.79343466        0
H       51.09844801      11.16109588      11.54067540        0
H       50.67234578      13.50197846      12.44816677        0
H       49.17551988      12.90031608      13.30111898        0
H       51.34062723       8.46885115      15.38005644        0
H       50.67102318       6.42511227      16.55535139        0
C       11.65799077      25.47895819       6.74943437        0
C       11.41892460      26.77925348       7.56079633        0
C       11.79858905      27.94610996       6.61153488        0
C        9.93980948      27.00005108       7.96039898        0
C        8.89818677      26.15868761       7.53738925        0
C        7.57092494      26.38856731       7.92869946        0
C        7.25442973      27.46746271       8.75183462        0
O        6.00744448      27.79795061       9.20389473        0
C        4.97026201      26.84256895       8.98977412        0
C        3.73388934      27.35029716       9.65642657        0
C        3.45679958      27.07354974      11.11062730        0
O        2.80938863      26.33113512      10.06366932        0
C        8.27320172      28.32108624       9.16817191        0
C        9.59682360      28.09081036       8.78265164        0
C       12.31887367      26.68076382       8.81649538        0
C       13.46280622      27.47368184       9.00476340        0
C       14.26054010      27.34304903      10.15216284        0
C       13.93365210      26.41444261      11.13706547        0
O       14.62395592      26.18350622      12.29484384        0
C       15.81130195      26.95035979      12.50687487        0
C       16.42948403      26.49462475      13.78974989        0
C       16.10418826      27.16072179      15.09957313        0
O       17.32374091      27.43770304      14.39522179        0
C       12.80083560      25.62075861      10.96698374        0
C       12.00565431      25.74908174       9.82439331        0
H       11.11350118      25.48969412       5.79750209        0
H       12.72162320      25.35336128       6.51068824        0
H       11.34504877      24.58279846       7.29764660        0
H       11.75710313      28.92092351       7.11107755        0
H       11.11542559      27.99367097       5.75424377        0
H       12.81148863      27.82653872       6.20768031        0
H        9.08880692      25.30207038       6.89558512        0
H        6.81163239      25.70378339       7.56535956        0
H        4.76894140      26.73674293       7.91772815        0
H        5.25861438      25.87026195       9.40869298        0
H        3.34209720      28.25283013       9.20695016        0
H        4.22285890      26.57767172      11.69701103        0
H        2.85619257      27.78661337      11.66283575        0
H        8.04038742      29.17025237       9.80575987        0
H       10.36553113      28.77160935       9.14222008        0
H       13.76657993      28.20959455       8.26592298        0
H       15.13087541      27.98567260      10.23764848        0
H       16.52781102      26.77452078      11.69338988        0
H       15.56488390      28.01926061      12.55929040        0
H       16.71647592      25.45133965      13.78258620        0
H       16.17465289      26.57043012      16.00494965        0
H       15.34496058      27.93257971      15.11828623        0
H       12.53095915      24.89244212      11.72911058        0
H       11.12752875      25.11206171       9.73193588        0
C       10.84134456      47.75135620      13.69621767        0
C       10.52915767      49.09375562      14.40806869        0
C       10.92307401      50.20750486      13.40248977        0
C        9.02719201      49.29611307      14.72329243        0
C        8.02977890      48.39874030      14.30892927        0
C        6.67959606      48.61410908      14.62232181        0
C        6.29538983      49.73414143      15.35692993        0
O        5.01977441      50.05616453      15.72795447        0
C        4.01975428      49.05869950      15.52952942        0
C        2.73971167      49.57170305      16.10324460        0
C        2.40034387      49.38149043      17.55813850        0
O        1.82397190      48.55412522      16.53358807        0
C        7.26998354      50.64263641      15.76277502        0
C        8.61626363      50.42713924      15.45501111        0
C       11.36989082      49.10330524      15.70786298        0
C       12.48204441      49.94020140      15.89618382        0
C       13.22678223      49.90766565      17.08541751        0
C       12.87754085      49.03542801      18.11324570        0
O       13.51716580      48.90033821      19.31446691        0
C       14.67221291      49.71405550      19.53020403        0
C       15.23975114      49.36069254      20.86760703        0
C       14.83424842      50.10017881      22.11414909        0
O       16.07854328      50.36696451      21.45030138        0
C       11.77563110      48.19927225      17.94361738        0
C       11.03327160      48.22989054      16.75944768        0
H       10.34322979      47.68442203      12.72145580        0
H       11.91819017      47.64207854      13.51580104        0
H       10.52619643      46.88366018      14.28728185        0
H       10.83179759      51.21092467      13.83416408        0
H       10.28096317      50.17932300      12.51320812        0
H       11.95705406      50.09206264      13.05475465        0
H        8.27368608      47.50842752      13.73456518        0
H        5.95706939      47.88512268      14.27017964        0
H        3.87315863      48.87787525      14.45863074        0
H        4.31323311      48.12446178      16.02459614        0
H        2.34626738      50.43131013      15.57753257        0
H        3.15013509      48.94742372      18.21081528        0
H        1.75518263      50.11070174      18.03368087        0
H        6.98434617      51.52399720      16.33147395        0
H        9.34847813      51.15218521      15.80409311        0
H       12.80145818      50.63545940      15.12526079        0
H       14.07467868      50.57991523      17.16853489        0
H       15.43146347      49.50724182      18.76415630        0
H       14.39535337      50.77635727      19.50050637        0
H       15.55426635      48.32806678      20.94259834        0
H       14.87663473      49.57200263      23.05879161        0
H       14.05483836      50.84885291      22.04670618        0
H       11.48874108      47.51409879      18.73881986        0
H       10.17778404      47.56254930      16.66865062        0
C       11.56751392      25.92746503      54.14275940        0
C       10.63538155      25.91443149      55.38259330        0
C       11.52193130      25.46498868      56.57373860        0
C       10.07355381      27.30844324      55.75312836        0
C       10.45590297      28.48826676      55.09462007        0
C        9.91676337      29.73193979      55.45544992        0
C        8.98283658      29.82441282      56.48548171        0
O        8.38346434      30.96979497      56.92978505        0
C        8.56815917      32.14226274      56.13886384        0
C        7.74290611      33.23403222      56.73705078        0
C        6.29495548      33.41633327      56.36520013        0
O        7.32768178      34.24896782      55.81145153        0
C        8.60384379      28.66605800      57.15963660        0
C        9.13690848      27.42551772      56.79834779        0
C        9.48782785      24.92863368      55.05439857        0
C        9.35238340      23.67524644      55.67360835        0
C        8.30457732      22.80427499      55.33673908        0
C        7.36898963      23.16604253      54.37082048        0
O        6.30813101      22.41381366      53.94769822        0
C        6.15553527      21.11903420      54.53342245        0
C        4.98128978      20.45750121      53.88601727        0
C        3.59665056      20.57176537      54.46468595        0
O        4.39513972      19.39307537      54.64701266        0
C        7.48756967      24.40695496      53.74775513        0
C        8.53104534      25.27529632      54.08157363        0
H       12.45632824      26.54757051      54.31079969        0
H       11.92067356      24.91620735      53.90459052        0
H       11.06384584      26.30972972      53.24734677        0
H       10.94473196      25.32893769      57.49561520        0
H       12.30008049      26.20852956      56.78717061        0
H       12.03329146      24.51759263      56.36323238        0
H       11.17970186      28.47366882      54.28348275        0
H       10.25570244      30.60657636      54.90992150        0
H        9.61970153      32.45026777      56.15894525        0
H        8.25892101      31.95303959      55.10320590        0
H        8.07766096      33.53752898      57.71986551        0
H        5.82947252      32.67603949      55.72342251        0
H        5.63044318      33.86295602      57.09531945        0
H        7.88059988      28.72367773      57.96920576        0
H        8.80296876      26.54246789      57.33908362        0
H       10.05695632      23.34073288      56.42952424        0
H        8.25567486      21.85042026      55.85203134        0
H        7.04800311      20.50803387      54.34304871        0
H        5.99380954      21.21198199      55.61565334        0
H        5.10015336      20.31702251      52.81971682        0
H        2.75274205      20.50243195      53.78931386        0
H        3.44071285      21.21414583      55.32234105        0
H        6.76268666      24.70492467      52.99285500        0
H        8.58563720      26.23669226      53.57345456        0
C       19.60080732      31.50118299      26.57224096        0
C       19.24102699      32.04451316      25.16455521        0
C       20.50198737      32.79919997      24.66733979        0
C       18.95314085      30.93485738      24.12436244        0
C       19.10725572      29.56682809      24.40104288        0
C       18.82778168      28.59128310      23.43264289        0
C       18.38868585      28.96216653      22.16324290        0
O       18.08180034      28.11351992      21.13651362        0
C       18.00178970      26.72453246      21.45061769        0
C       17.54645017      26.00238898      20.22505434        0
C       16.08309230      25.84177848      19.90747655        0
O       16.85470724      24.77042041      20.47602179        0
C       18.24509230      30.31546848      21.86682939        0
C       18.51899938      31.28852941      22.83210401        0
C       18.00410186      32.95612815      25.35260559        0
C       18.05618086      34.35454845      25.23238091        0
C       16.91358769      35.14661789      25.42493377        0
C       15.69256696      34.55822914      25.74447387        0
O       14.51034812      35.21053430      25.96163357        0
C       14.53104258      36.63721020      25.87808855        0
C       13.16075029      37.13655826      26.20757660        0
C       12.13039289      37.37071497      25.13581460        0
O       12.86744742      38.45355568      25.72262353        0
C       15.62280944      33.17167871      25.86591149        0
C       16.76007409      32.38139223      25.67520386        0
H       20.51640243      30.89784178      26.55164412        0
H       19.77205421      32.32233841      27.27967753        0
H       18.80441914      30.87673380      26.99343056        0
H       20.33341948      33.30938431      23.71192249        0
H       21.34134409      32.10800300      24.52020224        0
H       20.83268000      33.55540896      25.38994045        0
H       19.44565482      29.22176748      25.37493246        0
H       18.96996508      27.55134475      23.70792851        0
H       18.98974482      26.34293940      21.73229676        0
H       17.29521148      26.56263364      22.27436341        0
H       18.26177345      26.03679215      19.41436025        0
H       15.35938425      26.34734238      20.53774599        0
H       15.79105886      25.75063789      18.86798987        0
H       17.90900498      30.61992127      20.87882240        0
H       18.37900693      32.33410011      22.56588602        0
H       18.98356438      34.86548661      24.99023806        0
H       17.02037339      36.22122418      25.31734879        0
H       15.23761055      37.05072432      26.61009279        0
H       14.81963867      36.95101379      24.86603232        0
H       12.83658565      36.87677594      27.20672118        0
H       11.08477019      37.27740675      25.40242838        0
H       12.36578776      37.09337390      24.11590643        0
H       14.67517623      32.69705307      26.11256371        0
H       16.66178142      31.30176938      25.77620124        0
C       46.40319393      22.08076739      26.85595039        0
C       45.11737269      22.35408544      27.67947314        0
C       44.25390414      23.30723929      26.81188094        0
C       44.25993849      21.09023558      27.93187262        0
C       44.56239701      19.83603034      27.37753007        0
C       43.76395243      18.71243916      27.63757129        0
C       42.64242104      18.81797838      28.45779370        0
O       41.78810218      17.80380784      28.78968254        0
C       42.19130607      16.48116376      28.43984187        0
C       41.17902909      15.53171535      28.99181457        0
C       41.28060742      15.00836296      30.40030728        0
O       41.67871664      14.21544522      29.26927593        0
C       42.31899260      20.05791977      29.00354605        0
C       43.11608921      21.17747649      28.74887471        0
C       45.58167043      22.97965606      29.01718673        0
C       45.37177072      24.32866894      29.34711379        0
C       45.82163357      24.86046131      30.56563340        0
C       46.49401849      24.05549286      31.48167006        0
O       46.98630467      24.44623659      32.69627921        0
C       46.81854559      25.81995083      33.05346020        0
C       47.47860523      26.03411438      34.37787217        0
C       46.71538071      25.89832895      35.66790712        0
O       47.01679305      27.18235552      35.10172300        0
C       46.70920383      22.71412113      31.17094116        0
C       46.26245861      22.18307652      29.95739128        0
H       46.16935141      21.70118361      25.85395585        0
H       46.98918756      22.99905098      26.72383316        0
H       47.05996992      21.34890176      27.34029489        0
H       43.35254318      23.64648483      27.33531793        0
H       43.92424331      22.81019180      25.89090866        0
H       44.81488672      24.20048394      26.51059388        0
H       45.42590060      19.69689989      26.73173914        0
H       44.04948246      17.77255019      27.17653832        0
H       42.21547923      16.36894366      27.34996390        0
H       43.18387738      16.26555532      28.85497584        0
H       40.20393819      15.62762497      28.53345339        0
H       42.05365371      15.41065663      31.04617646        0
H       40.36652537      14.72828501      30.91033968        0
H       41.44362905      20.15660032      29.64057416        0
H       42.83835211      22.12440468      29.20699816        0
H       44.85793952      25.00203828      28.66720027        0
H       45.62760181      25.91029022      30.76048549        0
H       47.30613949      26.46768889      32.31268357        0
H       45.74987372      26.06542132      33.11431145        0
H       48.54143328      25.83129017      34.36699365        0
H       47.26086770      25.60503654      36.55646757        0
H       45.68754109      25.55939390      35.63311879        0
H       47.23078313      22.07184342      31.87772961        0
H       46.44814284      21.12951069      29.75498618        0
C        6.66973739      24.02076901      34.18697139        0
C        7.07780783      23.17952445      35.42471725        0
C        6.29554560      21.84507985      35.30589017        0
C        8.58019776      22.80799861      35.45647322        0
C        9.46690362      23.11243758      34.41106554        0
C       10.82415856      22.76544717      34.48212188        0
C       11.32597927      22.10381876      35.60112135        0
O       12.62206294      21.71429100      35.79344409        0
C       13.58769084      22.20885459      34.86752895        0
C       14.93603110      21.75957084      35.32682566        0
C       15.73169778      22.55960158      36.32428892        0
O       16.02205643      22.60331319      34.91708511        0
C       10.45723121      21.78041196      36.64063618        0
C        9.10545207      22.12937123      36.57319493        0
C        6.69241465      24.01809535      36.66756059        0
C        5.63095581      23.67930886      37.52270641        0
C        5.30491903      24.47513312      38.63191041        0
C        6.03188724      25.62979751      38.91023792        0
O        5.81752101      26.49200483      39.94992412        0
C        4.72609450      26.19643173      40.82413054        0
C        4.64099011      27.29114873      41.83900185        0
C        5.35611645      27.19617000      43.15987765        0
O        3.94827975      26.94150072      43.04464975        0
C        7.08949930      25.97969871      38.07288425        0
C        7.41504522      25.18855788      36.96725816        0
H        6.83859304      23.47342922      33.25173550        0
H        5.60399341      24.27990015      34.22057292        0
H        7.22629075      24.96290538      34.12217152        0
H        6.43458418      21.20037616      36.18141905        0
H        6.62426432      21.27341540      34.42892599        0
H        5.21804048      22.01601401      35.19132322        0
H        9.12916001      23.62841223      33.51566558        0
H       11.45665258      23.02602879      33.63979261        0
H       13.40340507      21.79287376      33.87052825        0
H       13.54417384      23.30440370      34.82394655        0
H       15.07057911      20.68716597      35.28277439        0
H       15.26497902      23.42521726      36.78196879        0
H       16.43095002      22.03300755      36.96293416        0
H       10.83337791      21.25911304      37.51731463        0
H        8.46316260      21.87287479      37.41305313        0
H        5.02796054      22.79275635      37.34906161        0
H        4.47375148      24.15828108      39.25361908        0
H        3.78389238      26.17016927      40.26054570        0
H        4.89008741      25.22910013      41.31748043        0
H        4.45322595      28.26521741      41.40680479        0
H        5.65803240      28.11610941      43.64534074        0
H        6.00932556      26.35158790      43.34026729        0
H        7.66857310      26.87767231      38.27887569        0
H        8.25055708      25.49568530      36.34032907        0
C       47.69411922      17.15938528      52.35879473        0
C       48.82312185      16.51572300      51.51187050        0
C       48.16257363      15.33366571      50.75476215        0
C       49.40598326      17.45955768      50.43221127        0
C       48.88920079      18.73935659      50.17364168        0
C       49.45167808      19.56781210      49.19136215        0
C       50.54431784      19.13409783      48.44318686        0
O       51.18266201      19.84216150      47.46353622        0
C       50.83832311      21.22040987      47.33621237        0
C       51.72660351      21.82119004      46.29657208        0
C       53.08566988      22.36751207      46.64662704        0
O       51.95425043      23.23047690      46.44260953        0
C       51.05993185      17.86135740      48.67595336        0
C       50.50328645      17.03639503      49.65738635        0
C       49.92172809      16.07844133      52.51098896        0
C       50.19035923      14.73399656      52.81603175        0
C       51.18646034      14.38013039      53.73935784        0
C       51.93564005      15.36323942      54.38078220        0
O       52.92711227      15.15657949      55.29979050        0
C       53.20795538      13.80184352      55.65844042        0
C       54.27090616      13.81594356      56.70989116        0
C       55.73049290      13.72727505      56.35368342        0
O       55.00308792      12.59030953      56.84187343        0
C       51.68326977      16.70225950      54.08843004        0
C       50.69098068      17.05642785      53.16961551        0
H       46.83204812      17.43706966      51.74034179        0
H       47.33009268      16.46291662      53.12463043        0
H       48.02923604      18.06290776      52.88120783        0
H       48.89090788      14.74125039      50.18898946        0
H       47.41426377      15.69483260      50.03816377        0
H       47.64584381      14.65133500      51.44089366        0
H       48.03884498      19.12820706      50.72837763        0
H       49.00416957      20.54434221      49.03775506        0
H       49.79833349      21.32145818      47.00572407        0
H       50.97183416      21.73438352      48.29643468        0
H       51.55624032      21.42599111      45.30415580        0
H       53.45318911      22.22888648      47.65771573        0
H       53.85348262      22.36061499      45.88207573        0
H       51.90844037      17.50727890      48.09589671        0
H       50.94525877      16.05551311      49.81930958        0
H       49.63249449      13.92753350      52.34898206        0
H       51.34499695      13.32371957      53.93071802        0
H       52.31108106      13.32545690      56.07645318        0
H       53.54865909      13.24191236      54.77729555        0
H       53.97627625      14.33409320      57.61298232        0
H       56.44900781      14.18412780      57.02311456        0
H       56.01418258      13.73501332      55.30869453        0
H       52.26219526      17.48182017      54.57959800        0
H       50.52787443      18.11375060      52.96734750        0
C        8.13783064      12.39438040      19.98261066        0
C        8.27054615      13.93936368      20.02313186        0
C        7.23408543      14.47994101      19.00317022        0
C        7.90462509      14.55941316      21.39348066        0
C        7.39862018      13.80570023      22.46478055        0
C        7.08681066      14.40458679      23.69429347        0
C        7.27272783      15.77301420      23.88024297        0
O        7.01123639      16.47397604      25.02428297        0
C        6.72146063      15.71214047      26.19474689        0
C        6.58353613      16.66271754      27.33851736        0
C        7.78104630      17.11265184      28.13324759        0
O        6.88440419      16.10230554      28.62485180        0
C        7.75926666      16.53837632      22.82316821        0
C        8.07452944      15.94232740      21.59884685        0
C        9.73786265      14.26043814      19.64858932        0
C       10.10688879      14.84994397      18.42832373        0
C       11.45121731      15.11170061      18.12134807        0
C       12.45803167      14.78773059      19.02719966        0
O       13.80011216      14.98387676      18.85213291        0
C       14.21637101      15.55374403      17.60923628        0
C       15.71010248      15.61986922      17.61160029        0
C       16.44226562      16.84312759      18.09400636        0
O       16.27189832      16.56895053      16.69545711        0
C       12.10921913      14.20377753      20.24353183        0
C       10.77079605      13.94170032      20.55050446        0
H        7.10565985      12.07163703      20.16487258        0
H        8.43033226      11.99931634      19.00156253        0
H        8.77316411      11.90234370      20.72814595        0
H        7.30061896      15.56672795      18.87670743        0
H        6.21001978      14.25495203      19.32657697        0
H        7.36460531      14.02523244      18.01343993        0
H        7.23521276      12.73460029      22.37486616        0
H        6.69639531      13.76782788      24.48143006        0
H        5.77365045      15.17587063      26.07193724        0
H        7.52867818      14.99476418      26.38914878        0
H        5.73093828      17.32246105      27.24957189        0
H        8.76696224      16.80881155      27.79822729        0
H        7.74533379      18.08635045      28.60733444        0
H        7.90386304      17.60812086      22.95178594        0
H        8.46713035      16.57232394      20.80344954        0
H        9.36285875      15.11773423      17.68371725        0
H       11.67002982      15.56913760      17.16185400        0
H       13.89740513      14.91699964      16.77324598        0
H       13.78897970      16.55875274      17.49385703        0
H       16.18379444      14.65072380      17.69664467        0
H       17.43412097      16.71478104      18.50977828        0
H       15.87189484      17.65780984      18.52238878        0
H       12.88449661      13.94734551      20.96276960        0
H       10.54091889      13.48739780      21.51290412        0
C       47.97336983      53.80037294      24.28810974        0
C       47.90562178      55.01586049      25.24947801        0
C       47.69303028      56.25876934      24.34571981        0
C       46.70515847      54.97066682      26.22572631        0
C       45.71279896      53.97850756      26.17424614        0
C       44.64448078      53.96822427      27.08319214        0
C       44.54324248      54.95214343      28.06471641        0
O       43.55785542      55.05269131      29.00676486        0
C       42.67127912      53.94254529      29.13288977        0
C       41.75819168      54.21289045      30.28354856        0
C       42.14362017      53.84865971      31.69310468        0
O       41.23678760      53.03989280      30.92499519        0
C       45.51053587      55.95271636      28.12042585        0
C       46.57800259      55.96181516      27.21817325        0
C       49.24501053      55.03260369      26.02545872        0
C       50.24026886      56.00157672      25.81737787        0
C       51.44774913      55.97268005      26.53230872        0
C       51.68864850      54.97230729      27.47061607        0
O       52.81782841      54.82609607      28.22816260        0
C       53.86564504      55.77601290      28.02188493        0
C       55.01302885      55.39230039      28.90045589        0
C       55.16190833      55.95312820      30.28914109        0
O       55.93290260      56.45409971      29.18699161        0
C       50.71096650      54.00390265      27.69076524        0
C       49.50808476      54.03080842      26.97897553        0
H       47.09120296      53.74802708      23.63864784        0
H       48.85182454      53.86406149      23.63362572        0
H       48.04331247      52.84774710      24.82586770        0
H       47.72181035      57.19666491      24.91233169        0
H       46.71944889      56.21631265      23.84147867        0
H       48.45726879      56.32487972      23.56154491        0
H       45.74332348      53.18666678      25.42986847        0
H       43.90872525      53.17627368      26.98859754        0
H       42.06568740      53.83716677      28.22560495        0
H       43.24088716      53.02068162      29.30532834        0
H       41.09276944      55.04944765      30.11777404        0
H       43.14460328      53.47184756      31.87375123        0
H       41.72735052      54.43243101      32.50554135        0
H       45.44132205      56.73020327      28.87708136        0
H       47.32126284      56.75155014      27.30518392        0
H       50.10673180      56.80065301      25.09393050        0
H       52.17571628      56.75043946      26.32516016        0
H       54.20297787      55.74910699      26.97711460        0
H       53.51320639      56.78564121      28.27179668        0
H       55.41692836      54.41338395      28.67808849        0
H       55.68020697      55.35574075      31.02914847        0
H       54.37577972      56.58436101      30.68422141        0
H       50.88350917      53.21733232      28.42264753        0
H       48.76944540      53.25746438      27.18342185        0
C       19.10753361       6.39134642      22.13267137        0
C       19.26073552       5.38259802      23.30108249        0
C       18.57950808       4.07368333      22.82205435        0
C       20.73132307       5.02161589      23.62245386        0
C       21.81716110       5.48102126      22.85975465        0
C       23.13662805       5.13753333      23.18932301        0
C       23.40054496       4.32441481      24.28974208        0
O       24.63493275       3.92080116      24.71628119        0
C       25.76312273       4.55158034      24.11324367        0
C       26.99083810       4.05052492      24.80062221        0
C       27.50930746       4.70339351      26.05482305        0
O       28.10627341       4.95284095      24.77113732        0
C       22.33427802       3.84723101      25.04821203        0
C       21.01925131       4.19218365      24.72365050        0
C       18.57263786       6.02920676      24.52778840        0
C       17.36076704       5.56209998      25.06250877        0
C       16.76219323       6.18623447      26.16801105        0
C       17.36100182       7.29373497      26.76304866        0
O       16.88409312       7.99446199      27.83628743        0
C       15.63702495       7.56712350      28.38856902        0
C       15.28218220       8.50245928      29.49980502        0
C       15.68563216       8.22230820      30.92243744        0
O       14.35105659       7.97653816      30.45484445        0
C       18.56468422       7.76923028      26.24614617        0
C       19.16178807       7.14920718      25.14463297        0
H       19.50400035       5.98666685      21.19362515        0
H       18.05192186       6.63490691      21.95817104        0
H       19.62603559       7.33704938      22.32856215        0
H       18.54420790       3.30990402      23.60749720        0
H       19.11951414       3.63768093      21.97222038        0
H       17.54927085       4.25137666      22.48979287        0
H       21.66864158       6.11883372      21.99189585        0
H       23.93111792       5.52220437      22.55822547        0
H       25.82434551       4.28318797      23.05247556        0
H       25.68644102       5.64151621      24.21414324        0
H       27.17489869       2.99687351      24.63926458        0
H       26.91726998       5.48999537      26.51016566        0
H       28.06788928       4.09499913      26.75622545        0
H       22.52460647       3.20715173      25.90604512        0
H       20.21561486       3.81183969      25.35070306        0
H       16.84835972       4.70561775      24.63401363        0
H       15.82608126       5.77639464      26.53336306        0
H       14.84729893       7.61582289      27.62697621        0
H       15.72483643       6.53973339      28.76642736        0
H       15.15722174       9.52747106      29.17639325        0
H       15.83353016       9.06436586      31.58740454        0
H       16.31509903       7.36539431      31.12740462        0
H       19.04607696       8.63214411      26.70194909        0
H       20.10369359       7.55021476      24.77388466        0
C       52.28093773      31.87385267      15.06244611        0
C       52.76633406      32.02786291      16.52767646        0
C       53.58074151      30.74505541      16.84063308        0
C       53.72682073      33.22266424      16.74245669        0
C       54.19766350      34.02567558      15.69113016        0
C       55.06122314      35.10519225      15.92882918        0
C       55.47539579      35.40573924      17.22492659        0
O       56.30868405      36.42646579      17.58865837        0
C       56.61614237      37.39504043      16.58781784        0
C       57.43636672      38.46855036      17.22471600        0
C       56.79268483      39.63929740      17.91976465        0
O       57.33728372      39.75387526      16.59434948        0
C       55.03024121      34.61010712      18.27788109        0
C       54.16626647      33.53676554      18.04311897        0
C       51.49304040      32.18334169      17.39424339        0
C       51.03570797      31.18659159      18.27178645        0
C       49.86741226      31.36157240      19.02970241        0
C       49.12809238      32.53706798      18.92570690        0
O       47.97553094      32.83235677      19.60002759        0
C       47.46265836      31.82928040      20.47957956        0
C       46.17979137      32.33643744      21.05634281        0
C       46.14715212      33.09270588      22.35716264        0
O       45.78029139      31.70714856      22.28112177        0
C       49.56867605      33.53716564      18.06093756        0
C       50.73167417      33.36415136      17.30476665        0
H       53.11574855      31.68361743      14.37712817        0
H       51.58520222      31.03099408      14.96431492        0
H       51.75578560      32.76596270      14.70199286        0
H       53.90009177      30.69859633      17.88819328        0
H       54.48729305      30.69483437      16.22454496        0
H       53.00161179      29.83685215      16.63293867        0
H       53.90552038      33.83675647      14.66107985        0
H       55.39182548      35.68511606      15.07334070        0
H       57.20577113      36.93630455      15.78600052        0
H       55.69221557      37.81603320      16.17171044        0
H       58.40908272      38.12885690      17.55415161        0
H       55.71427552      39.64137031      18.03645579        0
H       57.33514558      40.11822284      18.72629391        0
H       55.34973627      34.82905286      19.29365157        0
H       53.82873735      32.94949286      18.89451364        0
H       51.57077251      30.24848545      18.38751868        0
H       49.56800586      30.55357346      19.68943714        0
H       47.25311216      30.90628124      19.92260078        0
H       48.18682859      31.62351931      21.27911572        0
H       45.41981753      32.53087318      20.31102813        0
H       45.35142436      33.81116873      22.51125554        0
H       47.08393170      33.34165640      22.83987287        0
H       49.00310442      34.46242963      17.97076663        0
H       51.04282678      34.17131071      16.64361217        0
C       48.67294934      21.74716813      11.08265971        0
C       49.71687395      20.76030429      11.66793732        0
C       48.90684239      19.53609621      12.16989338        0
C       50.72167944      20.22377908      10.61973789        0
C       50.63076340      20.51928496       9.24998676        0
C       51.56706304      20.01961786       8.33278009        0
C       52.61618187      19.21067113       8.76485750        0
O       53.59071265      18.66497143       7.97678746        0
C       53.66580179      19.12945802       6.63032430        0
C       54.85793109      18.49532272       5.99194278        0
C       56.22761633      19.11162947       6.10237804        0
O       55.43216559      19.24674063       4.91265350        0
C       52.71260910      18.89492317      10.11796919        0
C       51.78292759      19.39561631      11.03373467        0
C       50.45353761      21.52359827      12.79536696        0
C       50.28393757      21.23014217      14.15840212        0
C       50.96036729      21.95632967      15.15090618        0
C       51.82065848      22.99462258      14.80298991        0
O       52.53378956      23.78031553      15.66579486        0
C       52.36317842      23.53127099      17.06282057        0
C       53.18020822      24.53505154      17.81148521        0
C       54.59922259      24.24574007      18.22116389        0
O       53.51237598      24.15925518      19.15466424        0
C       52.00182958      23.29794018      13.45491322        0
C       51.32826437      22.57612834      12.46517056        0
H       48.04693423      21.26901534      10.31961696        0
H       47.99950048      22.11844630      11.86541599        0
H       49.14195907      22.62409752      10.62157803        0
H       49.53532082      18.80540900      12.69203940        0
H       48.42894030      19.01107604      11.33330159        0
H       48.10749444      19.83440695      12.85939676        0
H       49.83331895      21.14622889       8.85875113        0
H       51.43952562      20.28190064       7.28759493        0
H       52.77112877      18.82578759       6.07502603        0
H       53.75831140      20.22266727       6.61144254        0
H       54.76896435      17.42268821       5.88407245        0
H       56.35330943      19.97981337       6.74037940        0
H       57.08971437      18.45685417       6.05569865        0
H       53.52242112      18.26011545      10.46872218        0
H       51.90253551      19.13867717      12.08414612        0
H       49.62105102      20.43436385      14.48558625        0
H       50.78624494      21.67970852      16.18575813        0
H       51.30979644      23.65895539      17.34592042        0
H       52.69165248      22.51208563      17.30650930        0
H       52.87983412      25.55814723      17.62733833        0
H       55.28143204      25.08036665      18.32654367        0
H       55.05895000      23.32159970      17.89381579        0
H       52.67286850      24.10481889      13.16721713        0
H       51.50029977      22.84310223      11.42374069        0
C       50.30915425      32.12539746      48.99677443        0
C       50.47596367      31.67504525      50.47176128        0
C       49.38780341      32.43753314      51.27258329        0
C       50.21118340      30.16635182      50.69525837        0
C       49.75924937      29.30910023      49.67904829        0
C       49.53902497      27.94498783      49.92048337        0
C       49.76457295      27.40664009      51.18580776        0
O       49.59119356      26.10017896      51.54864617        0
C       49.36116937      25.16445160      50.49705100        0
C       49.31619947      23.79862332      51.09981266        0
C       50.57104617      22.99364891      51.31298765        0
O       49.68703634      22.73648653      50.20897880        0
C       50.19823346      28.24576117      52.20939001        0
C       50.42229344      29.60434960      51.96926018        0
C       51.92265082      32.04565464      50.87935619        0
C       52.22501733      33.08139190      51.77856047        0
C       53.55208963      33.39503037      52.11094545        0
C       54.60783889      32.68115755      51.54971651        0
O       55.93974526      32.88587262      51.78299513        0
C       56.28738779      33.95184590      52.66936853        0
C       57.77926258      34.03178822      52.72878796        0
C       58.56577673      33.28500264      53.77226594        0
O       58.30079642      34.69068660      53.89048655        0
C       54.32550340      31.64904130      50.65687945        0
C       53.00431642      31.33588912      50.32417285        0
H       49.28431224      31.96900939      48.63900233        0
H       50.53018449      33.19424906      48.88368097        0
H       50.98055812      31.58622532      48.31848110        0
H       49.46847930      32.26770045      52.35247850        0
H       48.38207833      32.11960216      50.97032617        0
H       49.44543472      33.52008095      51.10486259        0
H       49.56841669      29.67587408      48.67351286        0
H       49.18667219      27.33644750      49.09404750        0
H       48.39661115      25.36466722      50.01689180        0
H       50.16421906      25.22717160      49.75193463        0
H       48.47342303      23.64730858      51.76081766        0
H       51.52707936      23.46405226      51.10974149        0
H       50.58574769      22.27123834      52.12047110        0
H       50.37274237      27.84094156      53.20310613        0
H       50.77615986      30.22280619      52.79143900        0
H       51.44060514      33.67339356      52.24112149        0
H       53.71852326      34.20630069      52.81229893        0
H       55.90262223      34.90618907      52.28564077        0
H       55.87427751      33.76049027      53.66873890        0
H       58.23736926      34.24561162      51.77208671        0
H       59.57931661      32.98734538      53.53298942        0
H       58.04083235      32.61386420      54.44050848        0
H       55.13970556      31.08039773      50.21209316        0
H       52.82709327      30.52023455      49.62506843        0
C       51.60339191      54.36289971      68.71332577        0
C       52.75729121      54.74851218      69.67563973        0
C       53.19031645      56.18041619      69.26462093        0
C       52.32848130      54.82736971      71.16094069        0
C       50.99880803      54.66949221      71.58384881        0
C       50.65240099      54.73988969      72.94128708        0
C       51.62894442      54.97162578      73.90792937        0
O       51.42346264      55.05984737      75.25646450        0
C       50.13734775      54.67563721      75.73879246        0
C       50.16925432      54.73821984      77.23073623        0
C       50.64063936      53.56921138      78.05492249        0
O       49.24302702      53.86153634      77.88858768        0
C       52.95064241      55.14589933      73.50463121        0
C       53.29802547      55.07169004      72.15280070        0
C       53.86318902      53.68338480      69.47845368        0
C       55.08760863      53.95644207      68.84680357        0
C       56.05884115      52.95784873      68.67508143        0
C       55.82684749      51.66208301      69.12935996        0
O       56.68185321      50.60010005      69.02231268        0
C       57.92572077      50.83234068      68.35773014        0
C       58.66616245      49.53454525      68.30218738        0
C       59.63928538      49.13773182      69.37955007        0
O       60.08263092      49.65731076      68.11716322        0
C       54.61784518      51.37432611      69.75995069        0
C       53.64912705      52.36759828      69.93108975        0
H       50.79746392      55.10653758      68.72888305        0
H       51.95975339      54.29579540      67.67766572        0
H       51.16025322      53.39185147      68.96285540        0
H       54.06932477      56.52640531      69.82064369        0
H       52.38591480      56.90305740      69.45076627        0
H       53.43291636      56.23929093      68.19642600        0
H       50.19749257      54.48557461      70.87243506        0
H       49.60699362      54.61262124      73.20281381        0
H       49.37384250      55.37394024      75.37762172        0
H       49.89546969      53.65907668      75.40394817        0
H       50.29423199      55.74086026      77.61698571        0
H       51.05229457      52.70740983      77.54069895        0
H       51.08147677      53.76987132      79.02421123        0
H       53.72231516      55.33322592      74.24708251        0
H       54.34382926      55.19749055      71.88048353        0
H       55.31820583      54.94825556      68.46883255        0
H       56.98406132      53.23352966      68.17937582        0
H       57.74917865      51.17669136      67.32995687        0
H       58.51061724      51.58354036      68.90509963        0
H       58.14423403      48.76443248      67.74957857        0
H       59.79359520      48.08198025      69.56581139        0
H       59.74067532      49.77247727      70.25096259        0
H       54.42301029      50.36707008      70.12270431        0
H       52.71952836      52.10177850      70.43172287        0
C       49.13806440      34.42247909      63.02074109        0
C       48.73195375      35.84207254      63.49619590        0
C       48.81857529      36.74958725      62.24092295        0
C       47.27325119      35.93371801      64.00610113        0
C       46.37120746      34.85932800      63.94436918        0
C       45.05908177      34.98064927      64.42520140        0
C       44.61805577      36.18129610      64.97808408        0
O       43.37118278      36.42706663      65.48152959        0
C       42.51050014      35.30206028      65.64866828        0
C       41.25877292      35.77633697      66.31129292        0
C       41.15119146      35.86769699      67.81067519        0
O       40.56880372      34.77757579      67.07657594        0
C       45.49495574      37.26200152      65.03311575        0
C       46.80403850      37.14132479      64.55838718        0
C       49.73047106      36.22927443      64.61397339        0
C       50.72318414      37.20931822      64.45032613        0
C       51.61882305      37.52075409      65.48512486        0
C       51.54361513      36.85734018      66.70718238        0
O       52.35290108      37.05985293      67.79085511        0
C       53.39475469      38.02829024      67.65127576        0
C       54.18382562      38.04036022      68.92124947        0
C       53.84702823      38.98038473      70.04733159        0
O       54.93729042      39.23850838      69.15020361        0
C       50.56336381      35.88323706      66.88708719        0
C       49.67102230      35.57131147      65.85717357        0
H       48.52771550      34.08937834      62.17263889        0
H       50.18482316      34.40134924      62.69220209        0
H       49.03642894      33.67288379      63.81405612        0
H       48.64063123      37.80532043      62.47605859        0
H       48.07302947      36.45599147      61.49133282        0
H       49.80156616      36.68134667      61.75880932        0
H       46.66281439      33.89993347      63.52416778        0
H       44.41016091      34.11459122      64.34573298        0
H       42.24826118      34.87817020      64.67267667        0
H       43.00199588      34.53718204      66.26300875        0
H       40.67610219      36.45073141      65.69828163        0
H       42.03791011      35.67432654      68.40475068        0
H       40.47660941      36.60336851      68.23239685        0
H       45.16300155      38.20669154      65.45640192        0
H       47.46261502      38.00401466      64.63409142        0
H       50.82989250      37.75330614      63.51629100        0
H       52.36245803      38.28801380      65.29518820        0
H       54.06525411      37.74935246      66.82745135        0
H       52.96383016      39.01993479      67.45901720        0
H       54.65343774      37.09161842      69.14533184        0
H       54.09390500      38.67758616      71.05752022        0
H       52.96448558      39.60199527      69.96212421        0
H       50.49033726      35.35802048      67.83731358        0
H       48.91818948      34.80627563      66.03995846        0
C        4.27616655       9.18006271       4.20756553        0
C        4.82514795       7.98531169       5.03061967        0
C        3.89130670       6.78793563       4.71277138        0
C        6.25318773       7.55113883       4.62023974        0
C        6.94348185       8.11557037       3.53547310        0
C        8.24069867       7.69970468       3.20099357        0
C        8.87744237       6.70745558       3.94378235        0
O       10.13437743       6.21727373       3.72380775        0
C       10.94635853       6.92278710       2.78717185        0
C       12.30042168       6.29243503       2.78741321        0
C       13.36190573       6.71447395       3.76884196        0
O       13.37076384       7.16838851       2.40490482        0
C        8.20135818       6.12590495       5.01364929        0
C        6.91040918       6.54229198       5.35084399        0
C        4.78936334       8.42548959       6.51431490        0
C        3.88737356       7.89420814       7.45074427        0
C        3.87816162       8.33135120       8.78445745        0
C        4.76974616       9.31191670       9.21197018        0
O        4.86289952       9.82802557      10.47500456        0
C        3.94031074       9.33352318      11.44820005        0
C        4.18030328      10.07237153      12.72574400        0
C        5.12782360       9.54833853      13.77108326        0
O        3.70564345       9.40724000      13.90387231        0
C        5.67275132       9.84857356       8.29615558        0
C        5.68271521       9.41482870       6.96722401        0
H        4.19442403       8.93420530       3.14190539        0
H        3.27379163       9.46685404       4.54974021        0
H        4.91016874      10.07024001       4.29240191        0
H        4.12840863       5.90262462       5.31404710        0
H        3.97408268       6.49373828       3.65895998        0
H        2.83831100       7.03618233       4.89425138        0
H        6.49461048       8.89373645       2.92308947        0
H        8.71877990       8.17290635       2.34953095        0
H       10.52309361       6.83733500       1.77991993        0
H       11.01726127       7.98089451       3.06895640        0
H       12.30338405       5.27859246       2.41030535        0
H       13.09438969       7.42192931       4.54635714        0
H       14.11078460       5.98686701       4.05848186        0
H        8.68332690       5.34652595       5.59852410        0
H        6.42275381       6.07418936       6.20334628        0
H        3.16709329       7.13131840       7.16980524        0
H        3.15663607       7.88075056       9.45833899        0
H        2.90818309       9.52360477      11.12471291        0
H        4.09010099       8.25562149      11.59553991        0
H        4.02022777      11.13929509      12.64262115        0
H        5.62038690      10.26282026      14.41916769        0
H        5.70569576       8.65893909      13.55296883        0
H        6.37741472      10.61367161       8.61582729        0
H        6.40635507       9.85754781       6.28473405        0
C       51.46012821      36.14753623      77.01702418        0
C       51.71236558      35.92962662      75.50205869        0
C       51.98846466      37.33772030      74.91228084        0
C       52.96386875      35.07121155      75.19697050        0
C       53.84631953      34.62237060      76.19277671        0
C       54.96569920      33.83883016      75.87552940        0
C       55.22931800      33.48709579      74.55321172        0
O       56.27964208      32.73024464      74.11440826        0
C       57.05693711      32.06786967      75.11010955        0
C       58.06621101      31.21585467      74.41278076        0
C       57.73979708      29.81223578      73.97531581        0
O       58.50856676      30.07429712      75.16138429        0
C       54.37287360      33.93668170      73.55107314        0
C       53.25466091      34.71384870      73.86609625        0
C       50.43534684      35.25908892      74.93992796        0
C       49.53062239      35.92046554      74.09328744        0
C       48.37597477      35.28052987      73.61658946        0
C       48.09833623      33.96455888      73.97761029        0
O       47.01247804      33.22922681      73.58966638        0
C       46.05378396      33.87911034      72.75218850        0
C       44.93402621      32.91949408      72.50542737        0
C       44.93373581      32.00132384      71.31290784        0
O       44.14597543      33.20081274      71.34115764        0
C       48.98646175      33.29292987      74.81563345        0
C       50.13655118      33.92911968      75.29192099        0
H       52.28797571      36.68790586      77.49181721        0
H       50.55133101      36.73936733      77.18409255        0
H       51.33064945      35.20274155      77.55755157        0
H       52.09110009      37.32040895      73.82109264        0
H       52.91761085      37.75820352      75.31700744        0
H       51.18477246      38.04354378      75.15570107        0
H       53.68774221      34.86642990      77.24031189        0
H       55.61061133      33.52641932      76.69036551        0
H       57.58793146      32.80248240      75.72606477        0
H       56.41044412      31.45095170      75.74688270        0
H       58.79972208      31.78466761      73.85734470        0
H       56.72016814      29.45996489      74.08867281        0
H       58.26497724      29.40706808      73.11849164        0
H       54.56923143      33.67503520      72.51435296        0
H       52.60157737      35.03164710      73.05605053        0
H       49.69564389      36.94875002      73.78485580        0
H       47.71752545      35.84651602      72.96554372        0
H       45.64746375      34.76595646      73.25663896        0
H       46.52124402      34.17397064      71.80321184        0
H       44.42036393      32.61597553      73.40813829        0
H       44.40801496      31.05783910      71.39396518        0
H       45.80341074      31.98298656      70.66802742        0
H       48.78452309      32.26340636      75.10445459        0
H       50.80586031      33.36776033      75.94180434        0
C        2.91485492      41.81283917      20.75384670        0
C        4.43636467      41.53649483      20.63190166        0
C        4.69929371      40.24682256      21.45312647        0
C        4.90073641      41.23982582      19.18533269        0
C        4.01251146      41.12648924      18.10365859        0
C        4.47459016      40.86474550      16.80536518        0
C        5.83720969      40.70863646      16.55912553        0
O        6.41320808      40.45429613      15.34582850        0
C        5.57353523      40.56443324      14.19814887        0
C        6.42326154      40.36153473      12.98669182        0
C        7.16243861      41.50678560      12.34631278        0
O        5.93505509      40.99852275      11.79709516        0
C        6.73101414      40.80260734      17.62316938        0
C        6.27247944      41.06770219      18.91665243        0
C        5.15282431      42.78858071      21.19346660        0
C        5.84941836      42.79162588      22.41309481        0
C        6.47378271      43.95303394      22.89400045        0
C        6.41392708      45.13920668      22.16694450        0
O        6.97140212      46.33659859      22.52159353        0
C        7.66247396      46.38621910      23.77170140        0
C        8.13180829      47.79022791      23.98169283        0
C        9.49605807      48.23889213      23.53151236        0
O        9.21944164      47.92933860      24.90548400        0
C        5.72826044      45.15330400      20.95376775        0
C        5.10519195      43.99759878      20.47374265        0
H        2.31959567      40.94494117      20.44533621        0
H        2.63768607      42.04135070      21.79069199        0
H        2.59622410      42.66485018      20.14219056        0
H        5.76598871      40.00253260      21.51644786        0
H        4.19690985      39.38296589      21.00004312        0
H        4.32094629      40.33564707      22.47895531        0
H        2.93976825      41.24041600      18.23887831        0
H        3.73708280      40.78571158      16.01333829        0
H        4.80305537      39.78532124      14.21704289        0
H        5.09797924      41.55291262      14.17029147        0
H        6.82851933      39.36172917      12.90762941        0
H        7.14595080      42.47251022      12.83996435        0
H        8.07819290      41.28964440      11.80931513        0
H        7.79641763      40.67723201      17.44709995        0
H        7.00427201      41.14930585      19.71759465        0
H        5.92275230      41.89570891      23.02275543        0
H        6.99627108      43.88915575      23.84304306        0
H        6.98321033      46.11977871      24.59247716        0
H        8.51605053      45.69539938      23.75779598        0
H        7.32603884      48.51083171      24.02991322        0
H        9.63206924      49.28193938      23.27330786        0
H       10.11467619      47.54797869      22.97250277        0
H        5.67494936      46.07195169      20.37294085        0
H        4.58264405      44.05057744      19.52002132        0
C       46.05751696       4.23133698       4.25343233        0
C       45.03627766       5.36896042       3.99054090        0
C       44.99311234       5.55122992       2.45050486        0
C       43.59368262       5.02459895       4.43388064        0
C       43.22474171       3.76322214       4.92847013        0
C       41.90735435       3.49362568       5.32772016        0
C       40.92720889       4.48020453       5.23989616        0
O       39.61440379       4.34631989       5.59650587        0
C       39.25881789       3.16626051       6.31439705        0
C       37.82004401       3.27919259       6.69911367        0
C       37.39946171       3.97379431       7.96746165        0
O       37.45247998       2.54036203       7.87310923        0
C       41.27236819       5.73239659       4.73711753        0
C       42.58559851       6.00388287       4.34297408        0
C       45.56300429       6.61107910       4.74954609        0
C       46.09410789       7.73823195       4.10131702        0
C       46.57468677       8.83887912       4.82767059        0
C       46.53717230       8.83663145       6.21971457        0
O       46.97434086       9.83632231       7.04421657        0
C       47.54952400      10.98690914       6.42121860        0
C       48.00872041      11.91293755       7.50159903        0
C       47.11594660      12.99935046       8.03807029        0
O       48.16299869      13.27982588       7.09724431        0
C       46.01175795       7.72687517       6.87889290        0
C       45.53339421       6.62948880       6.15694811        0
H       45.80561307       3.32331480       3.69236247        0
H       47.06775788       4.52988688       3.94623616        0
H       46.11291214       3.95851860       5.31365547        0
H       44.36763410       6.39901720       2.14791749        0
H       44.58531086       4.65834753       1.96021780        0
H       45.99440598       5.71626317       2.03392780        0
H       43.94926980       2.95770662       5.01927473        0
H       41.68579607       2.49806431       5.69817872        0
H       39.37983865       2.28404002       5.67560704        0
H       39.88659215       3.06325357       7.20843847        0
H       37.14630802       3.27217793       5.85287110        0
H       38.15779799       4.48065098       8.55449671        0
H       36.42033901       4.43695257       7.99788962        0
H       40.51692353       6.51004780       4.65733049        0
H       42.81788110       6.99940183       3.97058345        0
H       46.15220931       7.79040076       3.01797322        0
H       46.97225694       9.67883592       4.26716463        0
H       48.42010009      10.69721699       5.81769714        0
H       46.80470803      11.48191605       5.78385251        0
H       48.76502786      11.48261648       8.14478040        0
H       47.26421681      13.32491317       9.06039169        0
H       46.09303946      13.05513835       7.68722819        0
H       45.97327583       7.71141841       7.96627312        0
H       45.12806084       5.78400119       6.71039456        0
C       47.30932974      40.17827994       5.81699620        0
C       47.16906735      38.70391992       6.27831791        0
C       45.65695623      38.48743229       6.54933360        0
C       47.57485869      37.67267054       5.19754342        0
C       47.93372063      38.03508578       3.88923118        0
C       48.30345500      37.06989134       2.94092296        0
C       48.32128024      35.71827806       3.27938979        0
O       48.66295029      34.68465734       2.45268392        0
C       49.25244449      35.02897539       1.20036971        0
C       49.64826225      33.76195049       0.51567487        0
C       50.98329648      33.11470151       0.77417050        0
O       50.73794489      33.89387784      -0.40867702        0
C       47.95332624      35.33980962       4.56829543        0
C       47.58887337      36.30075915       5.51559573        0
C       48.05460022      38.55602362       7.53940746        0
C       47.52862591      38.39292778       8.83149735        0
C       48.36678229      38.27670318       9.95129889        0
C       49.75082807      38.32316136       9.80481430        0
O       50.67595453      38.22732940      10.80744036        0
C       50.17750595      38.09124214      12.14004736        0
C       51.34927341      38.06644803      13.06846435        0
C       51.99836779      36.77276460      13.48101640        0
O       51.09148806      37.47110499      14.34705795        0
C       50.28952350      38.48276040       8.52948271        0
C       49.45609376      38.59944276       7.41320626        0
H       46.65567728      40.39989429       4.96471410        0
H       47.03447549      40.87104614       6.62236467        0
H       48.33473476      40.42524231       5.51845686        0
H       45.44622812      37.49869122       6.97302000        0
H       45.07543327      38.57187928       5.62271493        0
H       45.25923236      39.23531086       7.24636641        0
H       47.93822803      39.07494912       3.57188974        0
H       48.56683600      37.41436544       1.94621792        0
H       48.52389123      35.55182417       0.57040860        0
H       50.13001766      35.66854010       1.35798740        0
H       48.80663589      33.14247243       0.23637596        0
H       51.61991026      33.53438426       1.54564769        0
H       51.06339776      32.04041541       0.65748351        0
H       47.95685852      34.28849146       4.84492089        0
H       47.32355681      35.96536902       6.51599994        0
H       46.45680819      38.35549079       9.00335896        0
H       47.89781287      38.15239016      10.92205651        0
H       49.54595118      38.95142360      12.39944832        0
H       49.59670311      37.16375309      12.23197307        0
H       51.94268412      38.97073322      13.03697664        0
H       53.04923229      36.78850019      13.74284144        0
H       51.65632512      35.84989296      13.02951198        0
H       51.36921658      38.51826762       8.39864839        0
H       49.91746585      38.71957742       6.43435445        0
C       13.81205076      38.02168906      53.53844249        0
C       13.46025504      36.55498268      53.17617063        0
C       14.73593574      35.96340913      52.52082652        0
C       13.14542567      35.66889575      54.40578350        0
C       13.27053483      36.12220647      55.72891036        0
C       12.96723033      35.28974861      56.81639029        0
C       12.53277393      33.98269535      56.60521400        0
O       12.20466089      33.07580363      57.57394618        0
C       12.09534919      33.56893768      58.90781986        0
C       11.62101503      32.44835616      59.77392319        0
C       10.15363464      32.15439320      59.94258909        0
O       10.90335570      32.85829748      60.94701854        0
C       12.41780858      33.51174910      55.29949625        0
C       12.71548478      34.34143297      54.21476527        0
C       12.24396596      36.62202954      52.22090406        0
C       12.32609663      36.31987147      50.85170701        0
C       11.20153075      36.40703200      50.01640804        0
C        9.96890120      36.80070251      50.53104069        0
O        8.80174941      36.93054181      49.83018394        0
C        8.85321924      36.66104828      48.42749501        0
C        7.49502643      36.92224674      47.85942854        0
C        6.46702765      35.82896953      47.74496039        0
O        7.22907452      36.26911860      46.61107704        0
C        9.86935765      37.10250845      51.88792667        0
C       10.98864018      37.01694352      52.72110027        0
H       14.71425353      38.08029266      54.15921218        0
H       14.00307272      38.61561790      52.63575352        0
H       13.00345043      38.52089109      54.08482556        0
H       14.57584306      34.94943699      52.13643576        0
H       15.55965696      35.90804827      53.24355810        0
H       15.08499552      36.58088354      51.68402069        0
H       13.60405867      37.13290209      55.95094161        0
H       13.08753892      35.69874749      57.81424591        0
H       13.07555503      33.89821113      59.27084494        0
H       11.38771087      34.40672230      58.94504814        0
H       12.33466114      31.64019347      59.86154847        0
H        9.44284189      32.71303139      59.34318537        0
H        9.85680102      31.13574177      60.16250215        0
H       12.08567400      32.49237081      55.11961144        0
H       12.59751425      33.94068702      53.21018893        0
H       13.26369101      36.01304057      50.39728129        0
H       11.33135117      36.15977816      48.96770952        0
H        9.57064084      37.33271752      47.93736331        0
H        9.14575447      35.61665945      48.25517750        0
H        7.16806960      37.94676353      47.97911159        0
H        5.42036878      36.10540713      47.77965372        0
H        6.69350255      34.85413785      48.15842602        0
H        8.91232032      37.40905697      52.30532705        0
H       10.86718340      37.25832352      53.77581889        0
C       57.27770361       4.84043566       7.93899831        0
C       57.02006601       6.31333068       7.52616441        0
C       58.32474770       6.79430716       6.83822276        0
C       55.88653001       6.47834573       6.48497203        0
C       55.22703143       5.38992235       5.89150445        0
C       54.19832602       5.58211170       4.95746979        0
C       53.80620615       6.86891376       4.59398877        0
O       52.82135926       7.18981182       3.70199446        0
C       51.98026057       6.12589180       3.26043312        0
C       50.91562653       6.71255129       2.39255304        0
C       49.63766245       7.25445778       2.97668725        0
O       49.69347722       5.96166620       2.35057539        0
C       54.46017555       7.95991903       5.16138438        0
C       55.48243722       7.77005396       6.09549361        0
C       56.68525236       7.07874426       8.82940288        0
C       57.55484861       8.01314935       9.41543617        0
C       57.21916254       8.67551598      10.60646726        0
C       56.00647856       8.41685167      11.24025679        0
O       55.56067541       8.98609599      12.40108503        0
C       56.43213647       9.91952773      13.04301412        0
C       55.77560656      10.36402159      14.31069134        0
C       54.89682400      11.58505791      14.35486154        0
O       56.25134991      11.61339957      14.82877546        0
C       55.13105274       7.49376137      10.67133743        0
C       55.46421604       6.83260934       9.48551569        0
H       57.59617521       4.23029023       7.08514958        0
H       58.07080138       4.77591317       8.69459146        0
H       56.38732073       4.36666875       8.36834066        0
H       58.29382781       7.85996905       6.58340101        0
H       58.50302383       6.24467306       5.90546213        0
H       59.20214589       6.63437254       7.47693608        0
H       55.49191717       4.36503586       6.13946592        0
H       53.73063326       4.69983437       4.53282846        0
H       52.55783364       5.40898373       2.66590485        0
H       51.53250727       5.61462896       4.12191342        0
H       51.29478395       7.13333382       1.47099046        0
H       49.54239924       7.30127286       4.05618762        0
H       49.12559874       8.04657627       2.44333769        0
H       54.16894956       8.96960428       4.88294743        0
H       55.95729271       8.64849584       6.52739650        0
H       58.51529315       8.24859593       8.96616749        0
H       57.93449656       9.38622991      11.00763973        0
H       57.38606597       9.43749581      13.29545453        0
H       56.61404356      10.77925187      12.38437733        0
H       55.59697642       9.55692976      15.00894166        0
H       54.10846536      11.62126297      15.09668094        0
H       54.67425461      12.10174516      13.42963797        0
H       54.17856390       7.28294524      11.15345473        0
H       54.75074483       6.12131280       9.07264346        0
C       41.30301866       4.27820938      73.28718530        0
C       40.74030087       4.81134201      71.94355329        0
C       39.19749847       4.69106297      72.05350842        0
C       41.04848087       6.30694681      71.68976840        0
C       41.68408890       7.12912753      72.63413533        0
C       41.95301326       8.47866552      72.36207060        0
C       41.59055058       9.03790939      71.13830465        0
O       41.79706779      10.33240631      70.75077252        0
C       42.64043310      11.12721088      71.58225907        0
C       42.82021677      12.45348890      70.91931469        0
C       43.90197602      12.67866062      69.89600523        0
O       44.04005948      13.13146719      71.25333370        0
C       40.94538611       8.24066223      70.19593210        0
C       40.68065130       6.89465086      70.46388100        0
C       41.35567486       3.92687063      70.83206156        0
C       40.61073018       2.99140660      70.09537303        0
C       41.21045279       2.19810747      69.10492917        0
C       42.57006292       2.32062242      68.82988518        0
O       43.27630618       1.60972725      67.89921325        0
C       42.55792269       0.62640240      67.15100903        0
C       43.52913376      -0.06299104      66.24707453        0
C       43.77366930       0.41823662      64.84216820        0
O       42.93867205      -0.71667843      65.11582036        0
C       43.32372818       3.24529354      69.55037620        0
C       42.72809238       4.03564468      70.53772419        0
H       40.86368623       4.80017067      74.14584860        0
H       41.08144229       3.21070324      73.41137387        0
H       42.39136571       4.38928749      73.35598912        0
H       38.69054287       4.95523228      71.11823519        0
H       38.80570250       5.35751590      72.83213466        0
H       38.88848965       3.67242195      72.31854689        0
H       41.98929323       6.74436842      73.60411080        0
H       42.44386344       9.06137742      73.13471736        0
H       42.16745129      11.28725297      72.55780324        0
H       43.61084666      10.63372098      71.71932199        0
H       41.90808852      13.03184026      70.85908482        0
H       44.49260601      11.82803840      69.57322697        0
H       43.73726872      13.42986851      69.13266984        0
H       40.65147190       8.66483006      69.23911440        0
H       40.18925284       6.30182807      69.69526102        0
H       39.54835848       2.85121808      70.27269955        0
H       40.57966110       1.49450259      68.57126409        0
H       42.12046563      -0.12072828      67.82664909        0
H       41.76316432       1.10611618      66.56427908        0
H       44.32091933      -0.57599489      66.77694445        0
H       44.74299565       0.22817810      64.39787061        0
H       43.29356123       1.33095520      64.51204317        0
H       44.38676807       3.35441475      69.34506111        0
H       43.35186238       4.74801335      71.07520839        0
C       15.07864835      53.66487312      32.11768476        0
C       14.06199883      52.61381455      32.63530273        0
C       14.43314908      51.28293393      31.92975281        0
C       14.16208456      52.34837251      34.15705789        0
C       15.14970217      52.92489395      34.97194566        0
C       15.20114047      52.66516679      36.34943911        0
C       14.26573543      51.82059607      36.94395885        0
O       14.20559549      51.48982213      38.26892096        0
C       15.03902179      52.23229141      39.15689010        0
C       14.73259324      51.79105822      40.55053483        0
C       13.61682459      52.41799353      41.34431065        0
O       14.99216661      52.77462605      41.56268871        0
C       13.28851495      51.22804101      36.14782766        0
C       13.23332030      51.48931126      34.77585129        0
C       12.65715278      53.14563104      32.26118053        0
C       11.85653395      52.56329719      31.26486618        0
C       10.59333656      53.08542532      30.94598636        0
C       10.10251427      54.20379672      31.61496896        0
O        8.89706829      54.81290562      31.40005485        0
C        8.06764042      54.26667794      30.37219450        0
C        6.84174003      55.11669917      30.27098185        0
C        5.59668622      54.79743520      31.05395760        0
O        5.71395540      54.47598124      29.66002311        0
C       10.88326847      54.79299088      32.60764635        0
C       12.14196291      54.27465017      32.92592959        0
H       16.11384931      53.33795954      32.27339518        0
H       14.95376390      53.83713501      31.04120069        0
H       14.96199271      54.63584968      32.61282877        0
H       13.71929473      50.48071445      32.14971025        0
H       15.42216621      50.93114391      32.24914492        0
H       14.47123904      51.39930093      30.83962931        0
H       15.90326795      53.59198493      34.56064296        0
H       15.99080882      53.13894965      36.92339361        0
H       16.09441560      52.02206622      38.94961980        0
H       14.84821608      53.30710472      39.04557737        0
H       15.00727443      50.76340711      40.74695100        0
H       12.97030323      53.13460497      40.84926931        0
H       13.12891178      51.81911199      42.10418215        0
H       12.55570307      50.56231571      36.59682718        0
H       12.44485881      51.01935414      34.19176502        0
H       12.19269897      51.69315118      30.70847590        0
H       10.02412322      52.58913645      30.16659562        0
H        8.59075646      54.29381114      29.40696095        0
H        7.79621999      53.23129302      30.61781050        0
H        7.05117489      56.14424179      30.00423727        0
H        4.93837858      55.61424634      31.32333983        0
H        5.62205151      53.98091036      31.76472147        0
H       10.51225706      55.66587115      33.14107499        0
H       12.71848495      54.76284283      33.70998168        0
C       10.63264144      17.20808079      54.74018846        0
C       12.06886910      17.52745819      55.23159145        0
C       12.15420243      19.07438819      55.31235180        0
C       12.37287494      16.99480213      56.65288430        0
C       11.40661023      16.37516410      57.46170370        0
C       11.72473419      15.89830238      58.74193507        0
C       13.01781465      16.03179961      59.24378904        0
O       13.45491646      15.60960052      60.46822472        0
C       12.57148650      14.77551584      61.21535487        0
C       13.28657253      14.34191379      62.45288145        0
C       14.17175737      13.12353500      62.46116035        0
O       12.83889099      13.09255276      62.99869986        0
C       13.98490814      16.65776836      58.46097390        0
C       13.67052882      17.12954024      57.18338841        0
C       13.03313145      16.90451893      54.19306682        0
C       13.80113745      17.67199884      53.30206351        0
C       14.65335226      17.06705870      52.36518193        0
C       14.75544851      15.67996239      52.29634144        0
O       15.53973373      14.96656231      51.43247874        0
C       16.31268140      15.71287277      50.48993711        0
C       17.03722272      14.73922940      49.61662713        0
C       18.42534888      14.26399328      49.95188211        0
O       18.19300214      15.26936043      48.95418978        0
C       14.00165736      14.90336916      53.17431477        0
C       13.15178808      15.50430456      54.10753063        0
H        9.87295494      17.67527566      55.37843968        0
H       10.47221733      17.58293034      53.72144405        0
H       10.42925029      16.13113011      54.72067255        0
H       13.16233091      19.42428009      55.56290721        0
H       11.47649860      19.46590145      56.08134939        0
H       11.86888259      19.54587155      54.36384908        0
H       10.38299898      16.24396252      57.11958115        0
H       10.93238053      15.43199175      59.31830314        0
H       11.67800205      15.33809205      61.50896216        0
H       12.27830574      13.90317429      60.61778791        0
H       13.50139909      15.15498986      63.13321427        0
H       14.36095794      12.61631200      61.52120517        0
H       14.99537265      13.09297811      63.16461386        0
H       14.99647976      16.77422901      58.84171501        0
H       14.45833992      17.59822272      56.59740343        0
H       13.75578327      18.75718413      53.30892160        0
H       15.21999931      17.71613178      51.70535494        0
H       15.65478608      16.32455099      49.85820463        0
H       17.02697792      16.35960012      51.01676007        0
H       16.37750188      14.09293656      49.05277125        0
H       18.72644834      13.28174797      49.60888148        0
H       18.87159771      14.57488797      50.88823031        0
H       14.07268257      13.81825115      53.13444187        0
H       12.58282573      14.86143853      54.77719661        0
C       46.19641479      31.48932407      31.39516962        0
C       44.86975138      31.60122875      32.19120369        0
C       43.90343825      30.57069371      31.55008524        0
C       45.00443599      31.20996638      33.68284347        0
C       46.18972051      30.70044179      34.23718353        0
C       46.27339998      30.36533402      35.59670287        0
C       45.17167018      30.53091681      36.43366750        0
O       45.12419489      30.24585580      37.76972106        0
C       46.36411420      29.95138193      38.41021654        0
C       46.09841341      29.78659452      39.87072297        0
C       46.09042918      30.96798903      40.80469881        0
O       47.21666631      30.07856324      40.72131348        0
C       43.98332516      31.02064644      35.89709761        0
C       43.89970493      31.35910426      34.54355348        0
C       44.39843939      33.06880666      32.04813470        0
C       43.28376910      33.44540708      31.28104425        0
C       42.89795378      34.78994472      31.16556769        0
C       43.61969872      35.78943281      31.81310659        0
O       43.35582277      37.13092218      31.78028139        0
C       42.24689927      37.55529035      30.98466058        0
C       42.18261740      39.04787691      31.04520022        0
C       41.35005331      39.75778593      32.07864385        0
O       40.90303964      39.60866427      30.72288591        0
C       44.72749432      35.43301932      32.57984880        0
C       45.11355641      34.09439039      32.69526821        0
H       46.57247859      30.45926409      31.37751446        0
H       46.05729004      31.79932177      30.35179338        0
H       46.98779324      32.12161834      31.81409170        0
H       42.89426937      30.62454498      31.97458921        0
H       44.26361205      29.54567635      31.70350187        0
H       43.81285780      30.71962871      30.46704557        0
H       47.07948194      30.55225267      33.63021874        0
H       47.21666036      29.97342467      35.96295002        0
H       46.77593878      29.01231446      38.02348082        0
H       47.08025760      30.76543261      38.24145301        0
H       45.48449691      28.92659897      40.10226145        0
H       46.18542616      31.96195035      40.38090141        0
H       45.47520644      30.91352984      41.69501217        0
H       43.11384821      31.14955784      36.53678166        0
H       42.95826753      31.75339163      34.16682934        0
H       42.68876259      32.70736582      30.75095603        0
H       42.02716975      35.01480463      30.55817195        0
H       42.39274586      37.25526646      29.93834473        0
H       41.31700382      37.11623227      31.37007031        0
H       43.06613290      39.53313942      30.65177917        0
H       41.66081491      40.74592385      32.39507210        0
H       40.85371602      39.17141986      32.84177269        0
H       45.29998530      36.20247335      33.09395979        0
H       45.98309478      33.85838991      33.30654082        0
C       13.56949136      38.67464707       4.32371559        0
C       14.95716267      39.08695923       4.88102675        0
C       15.24688949      40.49431513       4.29604455        0
C       14.98981261      39.23508297       6.42154898        0
C       13.84643148      39.11215663       7.22738786        0
C       13.91969913      39.24529236       8.62184081        0
C       15.13948472      39.50627955       9.24292438        0
O       15.34462361      39.65508175      10.58617742        0
C       14.26072343      39.30806821      11.44588157        0
C       14.73520028      39.43447871      12.85645696        0
C       15.43162543      38.29628751      13.55472656        0
O       14.04757840      38.59856636      13.79861734        0
C       16.28107366      39.64652983       8.45742402        0
C       16.21041047      39.50981560       7.06819990        0
C       15.95523485      38.00062660       4.41185519        0
C       16.93589403      38.23093357       3.43307441        0
C       17.81292198      37.21384330       3.02525200        0
C       17.72786450      35.94184772       3.58560126        0
O       18.51324299      34.86566680       3.27686678        0
C       19.50270434      35.05353679       2.26272514        0
C       20.19426106      33.74542769       2.04775604        0
C       21.44432186      33.38331162       2.80363928        0
O       21.49134186      33.84244634       1.44455043        0
C       16.76162220      35.69661815       4.55944600        0
C       15.88682607      36.70833614       4.96620321        0
H       12.80403055      39.42824943       4.54487724        0
H       13.60150067      38.55854271       3.23303533        0
H       13.22161362      37.72085048       4.73702510        0
H       16.25123417      40.85296197       4.54940124        0
H       14.53368065      41.23427364       4.68038418        0
H       15.16049228      40.50407864       3.20251743        0
H       12.86985554      38.90775419       6.79546108        0
H       12.99963618      39.14244806       9.18785962        0
H       13.42367225      39.99961938      11.29717378        0
H       13.93108859      38.28111634      11.24406054        0
H       14.96854685      40.45119624      13.14269240        0
H       15.67236657      37.40806569      12.98053716        0
H       16.14080245      38.53301927      14.33904074        0
H       17.23858554      39.85604462       8.92761393        0
H       17.12764148      39.61072354       6.49183816        0
H       17.04261400      39.20258838       2.95954625        0
H       18.54840412      37.45635749       2.26498278        0
H       19.02792844      35.35545359       1.31959391        0
H       20.22331504      35.82027838       2.57712259        0
H       19.53222251      32.95878164       1.71048403        0
H       21.64806044      32.33472594       2.98273372        0
H       21.79990017      34.05370428       3.57608944        0
H       16.68452855      34.70843498       5.00851851        0
H       15.14862135      36.47594007       5.73203169        0
C       16.64417449       9.82769368      15.58823228        0
C       17.64349526      10.39844508      16.62834264        0
C       18.04466989      11.80218937      16.10359763        0
C       17.02615056      10.61270847      18.03162170        0
C       15.66447466      10.41033344      18.30855253        0
C       15.14541790      10.60768287      19.59666184        0
C       15.97711573      11.01395911      20.63827325        0
O       15.59776228      11.23785708      21.93230318        0
C       14.28430354      10.82082935      22.30008471        0
C       14.12330240      11.05199123      23.76687496        0
C       14.55080772      10.01844235      24.77538055        0
O       13.17145435      10.19165547      24.40956241        0
C       17.32749396      11.23422140      20.37775567        0
C       17.84701890      11.03378921      19.09574611        0
C       18.82307947       9.39808410      16.69351636        0
C       20.10055765       9.68390449      16.18449600        0
C       21.13983900       8.74290615      16.25072411        0
C       20.92469115       7.49303666      16.82582107        0
O       21.84419903       6.48829260      16.94949958        0
C       23.14738634       6.73133260      16.41522760        0
C       23.96004349       5.49057206      16.60420765        0
C       24.80933907       5.28594451      17.82975410        0
O       25.37948151       5.69083513      16.57630315        0
C       19.66343505       7.19360724      17.33739742        0
C       18.62701425       8.12944196      17.27153164        0
H       15.80260528      10.51008359      15.41833672        0
H       17.13211885       9.67030077      14.61806424        0
H       16.22777691       8.86199930      15.89745552        0
H       18.82545513      12.26895097      16.71518034        0
H       17.18415901      12.48295552      16.10452963        0
H       18.41705349      11.75806109      15.07270262        0
H       14.97130089      10.09228777      17.53369851        0
H       14.08402057      10.43751862      19.74481685        0
H       13.53502702      11.41911290      21.76937464        0
H       14.14383695       9.75875682      22.06282517        0
H       14.14225422      12.09782310      24.04250591        0
H       15.07169454       9.13550987      24.42084574        0
H       14.85335545      10.35666708      25.75934782        0
H       17.98718640      11.55704071      21.17925277        0
H       18.91025837      11.20131912      18.93717898        0
H       20.32158481      10.64091947      15.72081456        0
H       22.10362163       9.02556568      15.83964866        0
H       23.08363603       6.94532954      15.33995850        0
H       23.61541307       7.57817908      16.93466984        0
H       23.55609616       4.62880484      16.08938412        0
H       24.99737425       4.27108108      18.15810018        0
H       24.76393017       6.01971859      18.62477306        0
H       19.48061503       6.22208890      17.79219901        0
H       17.65772127       7.85680163      17.68576076        0
C       33.76519787      11.86547791      44.08688641        0
C       33.14386324      10.53257707      44.58039157        0
C       31.95257364      10.24347789      43.62957761        0
C       34.10086185       9.32104486      44.46832569        0
C       35.37213449       9.40107805      43.87733656        0
C       36.21313593       8.28092296      43.80276136        0
C       35.80079577       7.05314229      44.31682964        0
O       36.52274753       5.89242045      44.30887578        0
C       37.89510307       5.98973308      43.93268469        0
C       38.51434373       4.64126510      44.10299592        0
C       39.08341511       4.20090799      45.42598911        0
O       39.92698291       4.65654654      44.35490168        0
C       34.53663384       6.95219451      44.89268589        0
C       33.69922970       8.06850440      44.97164326        0
C       32.72306037      10.76658660      46.05163360        0
C       31.38266661      10.85993804      46.46074923        0
C       31.04368507      11.08723782      47.80365506        0
C       32.03794346      11.22867309      48.76835457        0
O       31.84607608      11.45663437      50.10309136        0
C       30.49545352      11.58815869      50.55179194        0
C       30.52518592      11.89087004      52.01572284        0
C       30.46315136      10.79596569      53.04648744        0
O       29.31220988      11.58799523      52.71760902        0
C       33.37316228      11.13703896      48.37985848        0
C       33.71249990      10.91144893      47.04260304        0
H       34.02948797      11.81988121      43.02348107        0
H       33.06026261      12.69761177      44.20816197        0
H       34.67296039      12.13174956      44.64063566        0
H       31.37464572       9.36521196      43.93969643        0
H       32.30260928      10.05460968      42.60697003        0
H       31.25932385      11.09214111      43.57921063        0
H       35.74442110      10.33413197      43.46157852        0
H       37.18210232       8.40759992      43.33103352        0
H       37.97884026       6.28040727      42.87935269        0
H       38.40858924       6.72827717      44.56109982        0
H       38.11905928       3.89722365      43.42457982        0
H       38.94836394       4.84681443      46.28689202        0
H       39.09217427       3.14146222      45.65319088        0
H       34.19915378       5.99933166      45.29264041        0
H       32.72579129       7.95176443      45.44331840        0
H       30.56788284      10.76259931      45.74914278        0
H       29.98967410      11.14869027      48.05473448        0
H       30.00221505      12.42156923      50.03390672        0
H       29.94410830      10.65702296      50.36464784        0
H       31.03550152      12.81480731      52.25400286        0
H       30.93061858      10.97129776      54.00765820        0
H       30.47885482       9.76529712      52.71479905        0
H       34.16134828      11.24280519      49.12261810        0
H       34.76737373      10.84335080      46.78173668        0
C       40.13001214       5.33270015      64.27971770        0
C       40.16454442       6.85745066      64.56286452        0
C       40.14024661       7.54650821      63.17311427        0
C       38.92560590       7.37535040      65.33294672        0
C       37.82604254       6.56192048      65.65090864        0
C       36.72526880       7.06792946      66.35790539        0
C       36.69829927       8.40116221      66.76225557        0
O       35.69145830       9.01317973      67.45526251        0
C       34.67510257       8.17004793      67.99424211        0
C       33.75094445       9.02291523      68.80008326        0
C       34.02852382       9.32894982      70.24830981        0
O       33.06685902       8.33462354      69.85721200        0
C       37.77380712       9.22608663      66.44180460        0
C       38.87330317       8.72223665      65.74118247        0
C       41.46126055       7.12205238      65.36592232        0
C       42.57231397       7.79347832      64.82973855        0
C       43.73544696       8.00049881      65.58752079        0
C       43.81500944       7.53862416      66.89883328        0
O       44.88472319       7.66894250      67.74087329        0
C       46.04558162       8.32001146      67.21998071        0
C       47.09995917       8.29639333      68.27985899        0
C       47.25323700       9.42660917      69.26182517        0
O       48.12556968       9.28711388      68.13058034        0
C       42.72093113       6.87185883      67.44705945        0
C       41.56198695       6.66416734      66.69339797        0
H       39.27711735       5.05737031      63.64763924        0
H       41.03762301       5.00866708      63.75499556        0
H       40.06315929       4.73997919      65.19938295        0
H       40.25496704       8.63428848      63.24451960        0
H       39.19148311       7.35548603      62.65612224        0
H       40.94051503       7.17360042      62.52206006        0
H       37.79521135       5.51454462      65.36091742        0
H       35.90583313       6.38887530      66.56975603        0
H       34.10158082       7.70418700      67.18488552        0
H       35.12354854       7.39145905      68.62409651        0
H       33.19706535       9.73763474      68.20637470        0
H       34.96902551       8.99743540      70.67509140        0
H       33.64909624      10.25758505      70.65793649        0
H       37.76402260      10.26983481      66.74561047        0
H       39.70025334       9.39516256      65.52435964        0
H       42.56603897       8.16962907      63.81081638        0
H       44.55868083       8.52664307      65.11506486        0
H       46.42275246       7.77941171      66.34159782        0
H       45.80447309       9.35498454      66.94300489        0
H       47.39454579       7.29698380      68.57185006        0
H       47.66433751       9.20323083      70.23866428        0
H       46.53078233      10.23306061      69.24643642        0
H       42.76701066       6.50736725      68.47133387        0
H       40.72880674       6.14154480      67.16043526        0
C       51.28273238      22.50594032      42.00421000        0
C       50.86587752      23.67475954      41.07344560        0
C       50.14682120      23.01809002      39.86574548        0
C       49.84830358      24.64868673      41.71549272        0
C       49.27635872      24.43509909      42.98003493        0
C       48.36347657      25.34677539      43.53056633        0
C       48.00008450      26.49362781      42.82742216        0
O       47.12744054      27.45657424      43.25142628        0
C       46.71111750      27.39395185      44.61418187        0
C       45.86255514      28.59167579      44.89027986        0
C       46.47053163      29.90315977      45.31270380        0
O       45.85187215      29.01716689      46.26071143        0
C       48.54606624      26.71338614      41.56507654        0
C       49.45914659      25.80808795      41.01703713        0
C       52.17097277      24.41527675      40.69298629        0
C       52.73196789      24.36943938      39.40615727        0
C       53.92558035      25.04407994      39.10595868        0
C       54.58705376      25.77859266      40.08684746        0
O       55.75345713      26.47511212      39.92979470        0
C       56.37030004      26.42656572      38.64140026        0
C       57.64888832      27.19820082      38.71490625        0
C       57.70396834      28.66305003      38.37384543        0
O       58.14837269      27.65694718      37.45167413        0
C       54.04321954      25.83606460      41.36867296        0
C       52.85486153      25.16406013      41.66951880        0
H       50.42624456      21.87463424      42.26999277        0
H       52.02145886      21.85773824      41.51614701        0
H       51.73427564      22.85872012      42.93867600        0
H       49.88572690      23.74624139      39.08911767        0
H       49.21406637      22.53305768      40.17980674        0
H       50.76750714      22.24501205      39.39621297        0
H       49.52528230      23.55785091      43.57207744        0
H       47.95482498      25.12263672      44.51048255        0
H       46.10899984      26.49430067      44.78475084        0
H       47.58539248      27.38386591      45.27717699        0
H       44.93028669      28.59449598      44.34167849        0
H       47.55150390      29.99282649      45.31952926        0
H       45.94315132      30.81647349      45.06400568        0
H       48.26734271      27.60080328      41.00239721        0
H       49.87492868      26.02422501      40.03515220        0
H       52.26055920      23.80722262      38.60527194        0
H       54.30655760      24.96918153      38.09254714        0
H       56.60527817      25.38836457      38.37124088        0
H       55.70225834      26.86375904      37.88734423        0
H       58.35611692      26.79273493      39.42644302        0
H       58.46235796      29.27122374      38.85142904        0
H       56.78038245      29.18181078      38.14930614        0
H       54.54713511      26.40812670      42.14515837        0
H       52.46215116      25.23731244      42.68236631        0
C        9.98780734      24.69783766      64.31930416        0
C       10.05631461      26.18213393      63.87388293        0
C       10.91051844      26.19626499      62.57891862        0
C        8.67981697      26.78358629      63.50008524        0
C        7.49726310      26.02717518      63.46521151        0
C        6.26743469      26.61216223      63.12919881        0
C        6.19233016      27.96846158      62.81847808        0
O        5.06088685      28.65623004      62.47882620        0
C        3.81765917      27.98085147      62.65937517        0
C        2.72160404      28.94410158      62.34055984        0
C        2.17147873      29.87986275      63.38448551        0
O        1.47744956      28.67957969      63.00489957        0
C        7.35818080      28.73035601      62.83315473        0
C        8.58365620      28.14982798      63.17201310        0
C       10.69552960      26.96056500      65.04939894        0
C       11.99187257      27.49875922      64.99853262        0
C       12.54014214      28.18605272      66.09260660        0
C       11.80502878      28.34905014      67.26403266        0
O       12.21955461      28.98985421      68.39886313        0
C       13.54521536      29.52410530      68.39546981        0
C       13.80421282      30.11886651      69.74261170        0
C       13.52375192      31.56958968      70.02876458        0
O       14.85460810      31.09411289      69.77800226        0
C       10.51634810      27.82276749      67.33084572        0
C        9.96908246      27.13728440      66.24231173        0
H        9.61266086      24.05112013      63.51694465        0
H       10.98122614      24.32342411      64.59683223        0
H        9.33698145      24.55403191      65.18954388        0
H       11.10648442      27.21300558      62.21925028        0
H       10.40336797      25.65926049      61.76753278        0
H       11.88123496      25.70774230      62.72863964        0
H        7.49825174      24.96556788      63.69979759        0
H        5.39075128      25.97282408      63.11724136        0
H        3.74527716      27.13128917      61.97088666        0
H        3.72603267      27.62625468      63.69372845        0
H        2.69850276      29.24117302      61.30069890        0
H        2.65421624      29.91166695      64.35533090        0
H        1.75293794      30.82418356      63.05706453        0
H        7.31580933      29.78843352      62.58722661        0
H        9.46846658      28.78272929      63.18732689        0
H       12.61063037      27.39598505      64.11179285        0
H       13.54681077      28.57811845      65.98936349        0
H       14.27713061      28.72402463      68.22159224        0
H       13.64055674      30.28999855      67.61422992        0
H       13.74867504      29.39926626      70.54880677        0
H       13.27885116      31.85236128      71.04521920        0
H       13.04913593      32.17040325      69.26305954        0
H        9.92855772      27.94431394      68.23850450        0
H        8.95782108      26.74450838      66.33464173        0
C       13.67607561      16.19876257       9.01491477        0
C       12.73072649      17.17258977       8.26377941        0
C       12.96866921      18.56769233       8.89928594        0
C       13.05365685      17.31435649       6.75651912        0
C       14.16226895      16.70234375       6.14970184        0
C       14.41554090      16.84887261       4.77785093        0
C       13.56561618      17.61309232       3.98077364        0
O       13.69947620      17.83139077       2.63802270        0
C       14.66951008      17.04342184       1.95064474        0
C       14.56832331      17.35870949       0.49421562        0
C       13.59542781      16.63525838      -0.39918265        0
O       14.99391432      16.30314254      -0.37979250        0
C       12.46982236      18.23983928       4.56927207        0
C       12.21369256      18.09120533       5.93526373        0
C       11.29501135      16.63166568       8.46996333        0
C       10.34389687      17.27004566       9.28273498        0
C        9.05633257      16.73845142       9.45465207        0
C        8.69093417      15.55447392       8.81913644        0
O        7.47757437      14.92937967       8.90467537        0
C        6.49386665      15.53353528       9.74736588        0
C        5.28152295      14.65845942       9.73860042        0
C        4.16288005      14.87457312       8.75520200        0
O        4.06387862      15.31338720      10.11820567        0
C        9.62198446      14.90896579       8.00759476        0
C       10.90507332      15.43670172       7.83592422        0
H       14.71712394      16.54254406       8.98677385        0
H       13.39390578      16.11230927      10.07179426        0
H       13.65188789      15.18716381       8.59342395        0
H       12.28221790      19.32728250       8.50770866        0
H       13.98822120      18.92135709       8.70089900        0
H       12.84458713      18.54292254       9.98894252        0
H       14.85690258      16.09434730       6.72404155        0
H       15.29051721      16.35316903       4.37021814        0
H       15.67801100      17.30154023       2.29315383        0
H       14.48272350      15.97624081       2.12458847        0
H       14.85161788      18.37439461       0.25291952        0
H       12.89434578      15.94293680       0.05442796        0
H       13.21692700      17.15448096      -1.27168923        0
H       11.80138987      18.84398410       3.96098672        0
H       11.33845340      18.58397062       6.35338665        0
H       10.57761085      18.19283113       9.80577982        0
H        8.36803109      17.28013520      10.09541424        0
H        6.86645434      15.60186150      10.77817739        0
H        6.24459406      16.53651515       9.37599983        0
H        5.46621360      13.66318059      10.12092079        0
H        3.56669640      14.01897065       8.46258344        0
H        4.28062529      15.63001704       7.98840212        0
H        9.35042291      13.98430941       7.50224298        0
H       11.60115994      14.90291677       7.19095565        0
C       43.71103305      27.18049661      10.87354672        0
C       44.57550360      28.17372312      11.69355921        0
C       45.89836667      28.33829376      10.89999369        0
C       43.95487108      29.58679133      11.81301174        0
C       42.77427468      29.96331402      11.15253434        0
C       42.23953138      31.25240773      11.29352839        0
C       42.87495480      32.19612044      12.09812730        0
O       42.45745362      33.47877970      12.31955627        0
C       41.15161645      33.82005481      11.85839490        0
C       40.85859177      35.21589143      12.30179934        0
C       40.26981916      35.50065182      13.65838548        0
O       39.46456067      35.51322807      12.46765377        0
C       44.05536411      31.84433036      12.74834561        0
C       44.58707711      30.55887258      12.61230402        0
C       44.76378347      27.53594344      13.09147781        0
C       45.98949806      27.01619859      13.53895358        0
C       46.11455174      26.43277222      14.80936492        0
C       45.01560341      26.35370257      15.66098654        0
O       44.99948211      25.80933176      16.91545945        0
C       46.22157172      25.24264629      17.39313791        0
C       45.95958769      24.65787924      18.74407230        0
C       46.16850764      25.45834214      20.00135154        0
O       47.12515093      24.48331009      19.56057471        0
C       43.79220475      26.86616883      15.23342442        0
C       43.66577741      27.44688988      13.96808961        0
H       43.58380454      27.51467820       9.83677539        0
H       44.17838767      26.18835821      10.83708720        0
H       42.71075344      27.04753887      11.30172256        0
H       46.63219673      28.95240968      11.43467160        0
H       45.71826413      28.82116873       9.93132592        0
H       46.36934108      27.36957196      10.69233401        0
H       42.23729446      29.26660694      10.51355613        0
H       41.32628238      31.48191651      10.75429556        0
H       41.11689674      33.78839186      10.76349596        0
H       40.41033991      33.12428942      12.27123946        0
H       41.49265360      35.95783043      11.83533606        0
H       40.15081159      34.67613354      14.35307575        0
H       40.49021072      36.45443339      14.12298314        0
H       44.56524923      32.57201556      13.37468052        0
H       45.50226538      30.31884918      13.14943267        0
H       46.87695482      27.04693091      12.91348801        0
H       47.08900606      26.05015632      15.09537237        0
H       46.55460754      24.43795555      16.72409204        0
H       46.99703946      26.01774898      17.45545809        0
H       45.21980725      23.86825456      18.73528397        0
H       45.56999608      25.21209249      20.86983366        0
H       46.43669080      26.50396313      19.91593461        0
H       42.92496507      26.81409220      15.88863346        0
H       42.69315765      27.83804808      13.67405989        0
C       11.94825762       5.27015373      33.76952538        0
C       11.72322210       6.48722979      34.70457275        0
C       13.12033550       6.84606823      35.27562928        0
C       11.21020291       7.74954627      33.97000906        0
C       11.06444255       7.81800645      32.57506292        0
C       10.58802248       8.97881096      31.94804687        0
C       10.24749816      10.09967886      32.70265560        0
O        9.77200820      11.28518974      32.21580239        0
C        9.39285420      11.31153748      30.84106705        0
C        8.80094151      12.65243601      30.55390624        0
C        7.33945694      12.93098888      30.78744157        0
O        7.85861675      12.67373973      29.47186664        0
C       10.40049495      10.05438516      34.08629092        0
C       10.87096486       8.89695017      34.71289290        0
C       10.71024904       6.02785610      35.78125749        0
C       11.06286553       5.80998315      37.12324799        0
C       10.11625407       5.37942402      38.06585890        0
C        8.79511623       5.15463079      37.68735973        0
O        7.77956556       4.73204089      38.49999517        0
C        8.10737038       4.47034449      39.86633011        0
C        6.87449123       3.96696169      40.54620261        0
C        5.92583224       4.90168675      41.24725517        0
O        6.87473254       4.10623363      41.97318948        0
C        8.42778236       5.36764713      36.36002211        0
C        9.36956170       5.79574031      35.41976636        0
H       12.71266709       5.47800199      33.01108191        0
H       12.28750024       4.39449720      34.33717696        0
H       11.03335472       4.97523742      33.24269651        0
H       13.07188223       7.64156620      36.02819865        0
H       13.79222976       7.19420964      34.48109919        0
H       13.60120566       5.97876498      35.74457526        0
H       11.31415733       6.97271920      31.93853040        0
H       10.50122928       8.96904001      30.86645474        0
H       10.27363662      11.17629581      30.20314565        0
H        8.66252091      10.51912308      30.63439408        0
H        9.51228909      13.46331451      30.63487883        0
H        6.73733075      12.16456765      31.26349862        0
H        7.04158088      13.94709345      31.01749386        0
H       10.14439240      10.92324729      34.68736837        0
H       10.96104939       8.89667569      35.79713120        0
H       12.08006981       5.96475364      37.47120302        0
H       10.45252088       5.22983867      39.08679242        0
H        8.88148442       3.69393988      39.92962115        0
H        8.46347148       5.38929995      40.35082062        0
H        6.49536794       3.04585796      40.12348178        0
H        4.88287864       4.61710155      41.31340061        0
H        6.10281018       5.96817363      41.18540016        0
H        7.39858825       5.19881722      36.04958454        0
H        9.04055296       5.95331503      34.39391507        0
C       26.35404322       9.68363770       2.81972331        0
C       26.46829851       9.47801800       4.35298617        0
C       25.04420877       9.71867769       4.91942041        0
C       26.86653841       8.03847169       4.75959013        0
C       27.00658925       6.99195505       3.83384919        0
C       27.37740604       5.70226029       4.24222970        0
C       27.61544758       5.42898630       5.58773836        0
O       27.98301899       4.22140472       6.11232466        0
C       28.35928556       3.20415200       5.18605817        0
C       28.82872370       2.02177485       5.96864551        0
C       30.25915361       1.90011429       6.42376811        0
O       29.76612840       1.18031567       5.28128945        0
C       27.46611941       6.45166754       6.52140341        0
C       27.10092680       7.73832927       6.11549248        0
C       27.51761147      10.50063543       4.85257054        0
C       27.18498185      11.62749123       5.62218023        0
C       28.16571380      12.53895234       6.04333724        0
C       29.50196781      12.34549333       5.70245946        0
O       30.55074105      13.15485473       6.04203352        0
C       30.24673683      14.32819235       6.79944518        0
C       31.51930748      15.08649783       7.00229629        0
C       32.37977008      14.86780299       8.21758069        0
O       31.50552891      16.00073790       8.10668005        0
C       29.84968044      11.23151649       4.94069386        0
C       28.87398063      10.32315414       4.51976548        0
H       25.57462412       9.04774805       2.38279144        0
H       26.09431230      10.72239233       2.57968810        0
H       27.29210002       9.45970794       2.29868923        0
H       25.02054888       9.69075710       6.01495045        0
H       24.34437191       8.95287662       4.56206975        0
H       24.64274424      10.69044893       4.60661336        0
H       26.83418121       7.14975731       2.77205091        0
H       27.46551679       4.93660882       3.47836821        0
H       27.49465468       2.90195782       4.58430755        0
H       29.15791554       3.56820334       4.52751600        0
H       28.04743830       1.55441982       6.55282723        0
H       30.92726226       2.73814966       6.25668937        0
H       30.46450125       1.33106460       7.32273279        0
H       27.64280039       6.25176526       7.57526626        0
H       27.01043727       8.51311787       6.87391339        0
H       26.15774010      11.82939234       5.91156143        0
H       27.84347636      13.38913593       6.63588032        0
H       29.54535274      14.96683815       6.24604268        0
H       29.80927418      14.04883531       7.76722836        0
H       31.97984704      15.40972638       6.07802031        0
H       33.44400069      15.04912465       8.13010595        0
H       32.10787213      14.08614171       8.91587766        0
H       30.89009756      11.06534335       4.66860152        0
H       29.18827611       9.46432798       3.92893269        0
C       55.06765172      21.01848834      71.94424521        0
C       54.42505931      22.34283183      72.43354882        0
C       54.77435371      22.45083620      73.94123742        0
C       55.00888363      23.60555373      71.75465415        0
C       56.09036335      23.56364831      70.85997369        0
C       56.58494484      24.73066671      70.25909972        0
C       56.00947021      25.96808268      70.54082060        0
O       56.39443134      27.17293273      70.02246350        0
C       57.32622093      27.14187879      68.94304096        0
C       57.51637370      28.54253945      68.46052419        0
C       56.60051282      29.14819597      67.42977366        0
O       57.90612955      28.65592217      67.08412518        0
C       54.94581277      26.02982905      71.43788609        0
C       54.44907403      24.86731254      72.03406870        0
C       52.90749422      22.22002188      72.15372291        0
C       51.94981106      22.06731952      73.16973003        0
C       50.58358233      21.94495648      72.87238161        0
C       50.14375214      21.97028864      71.55135681        0
O       48.84905786      21.85736864      71.12554284        0
C       47.84930171      21.66979980      72.12959350        0
C       46.53131353      21.51141397      71.44152888        0
C       45.63762045      22.69221644      71.17290700        0
O       45.38771661      21.78943788      72.26041655        0
C       51.08056631      22.12287414      70.53094897        0
C       52.44178413      22.24410632      70.82536672        0
H       56.14047111      20.98166774      72.16888282        0
H       54.60607455      20.15190686      72.43421592        0
H       54.95236641      20.87422727      70.86375012        0
H       54.29088223      23.30956071      74.42120925        0
H       55.85570077      22.56647783      74.08696986        0
H       54.47112657      21.55230684      74.49265347        0
H       56.57595819      22.62523235      70.60381982        0
H       57.42481434      24.63149889      69.57920632        0
H       58.29302573      26.75886090      69.28886964        0
H       56.94626361      26.50678191      68.13291418        0
H       57.99313973      29.18705689      69.18673856        0
H       55.73360203      28.57931150      67.11130247        0
H       56.45743723      30.22223895      67.43892526        0
H       54.49067562      26.98897269      71.67176142        0
H       53.60676337      24.95628040      72.71691969        0
H       52.23834308      22.03567591      74.21638141        0
H       49.89458245      21.82999640      73.70293549        0
H       48.05407045      20.75652321      72.70410030        0
H       47.82684239      22.53544918      72.80499333        0
H       46.49032506      20.65476284      70.78173478        0
H       44.96911956      22.64460198      70.32205120        0
H       45.99792215      23.68479351      71.41272974        0
H       50.75199019      22.14716219      69.49385526        0
H       53.14030804      22.36479185      69.99896080        0
C       11.52780776      46.08689173      47.80425332        0
C       11.32400604      47.28180543      48.77217625        0
C       11.22688959      48.54255751      47.87336090        0
C       10.00365818      47.21205920      49.57718085        0
C        9.03342239      46.21773563      49.37280190        0
C        7.85283745      46.18475754      50.12958718        0
C        7.61459288      47.14761723      51.10829896        0
O        6.51104913      47.22504381      51.91126167        0
C        5.62253258      46.10942192      51.89466772        0
C        4.56156458      46.35250587      52.91745210        0
C        4.75654863      45.96028107      54.35835756        0
O        3.96612085      45.16456435      53.45919116        0
C        8.55936953      48.15017688      51.31367050        0
C        9.73821957      48.18182808      50.56337822        0
C       12.54696678      47.28702010      49.72124340        0
C       13.55506534      48.26359021      49.66838870        0
C       14.65579565      48.22398938      50.53832795        0
C       14.77480695      47.20509672      51.48007786        0
O       15.79296053      47.04704507      52.37934684        0
C       16.85301780      48.00470892      52.33495445        0
C       17.87444966      47.60674667      53.35177049        0
C       17.83204224      48.13898391      54.75891819        0
O       18.74086602      48.66553589      53.78069508        0
C       13.78250159      46.22890428      51.54726181        0
C       12.68591887      46.26646513      50.68101212        0
H       10.74115923      46.04503632      47.04123860        0
H       12.48575676      46.16728990      47.27514266        0
H       11.53088663      45.12349920      48.32716533        0
H       11.17347244      49.46851728      48.45754453        0
H       10.33009859      48.50723924      47.24213912        0
H       12.08905390      48.62768550      47.20046619        0
H        9.16855635      45.44171505      48.62342046        0
H        7.14141257      45.39239263      49.92101455        0
H        5.14489391      46.02089151      50.91230558        0
H        6.16959425      45.18615215      52.12339784        0
H        3.91919726      47.19001502      52.68072750        0
H        5.72655849      45.58327392      54.66419124        0
H        4.23133464      46.52551293      55.11913736        0
H        8.38433884      48.91145562      52.06972800        0
H       10.45811307      48.97216234      50.76540069        0
H       13.51485820      49.07712142      48.94986137        0
H       15.40009954      49.00843704      50.44662193        0
H       17.32771543      48.00079165      51.34464680        0
H       16.46390709      49.00766591      52.55560880        0
H       18.31066442      46.63409926      53.16593952        0
H       18.25003495      47.52809263      55.54962047        0
H       16.99605606      48.75908768      55.05748127        0
H       13.86014985      45.42783622      52.27963892        0
H       11.93137471      45.48645104      50.76869643        0
C       18.79921895      51.03726655      45.92596319        0
C       17.98629443      50.78080580      44.62996538        0
C       18.67887287      51.61889816      43.52328894        0
C       18.02201501      49.30811660      44.15443835        0
C       18.80272401      48.32080401      44.77694531        0
C       18.80091034      46.99458680      44.32006795        0
C       18.01841720      46.62531766      43.22778558        0
O       17.92658963      45.37252938      42.68867331        0
C       18.51685293      44.30691977      43.43057264        0
C       18.20251090      43.02802368      42.72598432        0
C       16.92321261      42.27947708      42.99270792        0
O       18.17355032      41.86833393      43.57068573        0
C       17.24973482      47.59525355      42.58883486        0
C       17.24714073      48.91622749      43.04561584        0
C       16.53464913      51.22629204      44.93105763        0
C       15.95145272      52.37306144      44.36754418        0
C       14.63570356      52.75033606      44.67808850        0
C       13.87336953      51.99027128      45.56146112        0
O       12.58788004      52.24703337      45.95119402        0
C       11.97151699      53.42298181      45.42199271        0
C       10.60730640      53.53683897      46.02330615        0
C        9.39926803      52.94286764      45.35026762        0
O        9.68756287      54.34715598      45.27956800        0
C       14.43604945      50.84826392      46.12833483        0
C       15.74666677      50.47153741      45.82067854        0
H       19.86463689      50.81820088      45.78577013        0
H       18.72443031      52.08695759      46.23683878        0
H       18.44573824      50.42864290      46.76632040        0
H       18.13243385      51.58895100      42.57353478        0
H       19.69183462      51.24701246      43.32446254        0
H       18.77566896      52.67228003      43.81376872        0
H       19.43066402      48.55350690      45.63343954        0
H       19.42844671      46.27981816      44.84234563        0
H       19.60563805      44.42707977      43.46404261        0
H       18.11612862      44.28913050      44.45190734        0
H       18.66869004      42.94655656      41.75328909        0
H       16.18198291      42.73753613      43.63873285        0
H       16.51336284      41.66574920      42.19930767        0
H       16.63885131      47.32302320      41.73179578        0
H       16.62076576      49.64031785      42.52886104        0
H       16.50276146      53.00465776      43.67698215        0
H       14.24361830      53.64692232      44.20887787        0
H       12.55022552      54.31379156      45.70059071        0
H       11.90297702      53.35252376      44.32821205        0
H       10.61865308      53.63580896      47.10077339        0
H        8.56695953      52.63567155      45.97156407        0
H        9.53892757      52.35254228      44.45329901        0
H       13.85195719      50.24262821      46.81837624        0
H       16.14720226      49.57069292      46.28273690        0
C       50.42994951       9.13766475      38.65544865        0
C       49.73562398       9.30928305      37.27897202        0
C       50.85379151       9.13976096      36.21701153        0
C       48.67414013       8.22351358      36.97802000        0
C       48.43839423       7.12743902      37.82350922        0
C       47.46071935       6.16884174      37.51882021        0
C       46.69652399       6.28384527      36.35928770        0
O       45.71617949       5.42304997      35.95123266        0
C       45.29188875       4.43753783      36.89096262        0
C       44.14889865       3.68950749      36.28693028        0
C       42.73180040       4.18183784      36.41925932        0
O       43.23963448       3.11335234      37.23588940        0
C       46.92777712       7.35654537      35.50153324        0
C       47.89861070       8.31489161      35.80597106        0
C       49.09401333      10.71806012      37.28743213        0
C       49.57838955      11.78644121      36.51497693        0
C       48.97596780      13.05325105      36.56241740        0
C       47.87613256      13.28138312      37.38553163        0
O       47.20159514      14.46240980      37.52862945        0
C       47.68469513      15.58079565      36.78120744        0
C       46.84501369      16.76649560      37.13428327        0
C       45.61796316      17.12554450      36.34019864        0
O       46.85973558      17.82402850      36.16624624        0
C       47.38156938      12.23173089      38.15739480        0
C       47.98090367      10.96958189      38.11188335        0
H       50.97902484       8.19029204      38.71677131        0
H       51.15455797       9.94204668      38.83433554        0
H       49.71626500       9.15901383      39.48717592        0
H       50.49566070       9.33337611      35.19927831        0
H       51.25563961       8.11882891      36.22876963        0
H       51.69584854       9.81758868      36.40369551        0
H       49.00474615       6.98945888      38.74125028        0
H       47.32942442       5.34385293      38.21136997        0
H       46.10461821       3.72972685      37.08967382        0
H       44.98246366       4.91656272      37.82841250        0
H       44.42636318       3.10707294      35.41866804        0
H       42.56196837       5.14842083      36.88127900        0
H       42.02428746       3.92296327      35.64045761        0
H       46.34328445       7.45603278      34.59033920        0
H       48.03747420       9.14623121      35.11801802        0
H       50.43641935      11.66520197      35.86013568        0
H       49.39798148      13.83643845      35.94090445        0
H       48.72623683      15.79843996      37.05302407        0
H       47.61831239      15.37160020      35.70517361        0
H       46.89511578      17.03291038      38.18183871        0
H       44.81718121      17.65108160      36.84584199        0
H       45.29634066      16.46153647      35.54761186        0
H       46.52112824      12.39380336      38.80352876        0
H       47.56153920      10.17604952      38.72823327        0
C       33.33129219      55.23791581      72.35784158        0
C       33.26816776      54.70429674      73.81300299        0
C       33.39728534      55.95126609      74.72689167        0
C       31.92010081      54.03318756      74.17153245        0
C       30.82172510      54.00533394      73.29711689        0
C       29.61921018      53.37920750      73.65700000        0
C       29.48701312      52.76716026      74.90185265        0
O       28.37516787      52.12450005      75.37019099        0
C       27.33169367      51.87442430      74.43052460        0
C       26.27754092      51.07052814      75.11852443        0
C       26.35224270      49.56761561      75.17968968        0
O       25.48979061      50.24384265      74.24945595        0
C       30.56142324      52.79878467      75.78760037        0
C       31.76175840      53.41849822      75.42874335        0
C       34.43802256      53.70122119      73.96020289        0
C       35.58177204      53.96422224      74.73183304        0
C       36.62745091      53.03290859      74.82764717        0
C       36.55425430      51.81752498      74.15186335        0
O       37.49947936      50.82917666      74.15621258        0
C       38.69139393      51.07389678      74.90605517        0
C       39.59923692      49.90027142      74.72156544        0
C       39.57863550      48.73322664      75.67168204        0
O       40.59538983      49.74395170      75.74084547        0
C       35.42557294      51.53970032      73.38308044        0
C       34.38353533      52.46653477      73.28597986        0
H       32.57935682      56.01592320      72.17879709        0
H       34.31152763      55.68187844      72.14307682        0
H       33.16911589      54.44654021      71.61689953        0
H       33.45846762      55.68602274      75.78869584        0
H       32.53207021      56.61580373      74.60978092        0
H       34.28952723      56.54120297      74.48349849        0
H       30.87044810      54.46613671      72.31358826        0
H       28.80681461      53.39503544      72.93781089        0
H       26.88713932      52.81951349      74.09857649        0
H       27.72507179      51.32750872      73.56440798        0
H       25.77754749      51.60690758      75.91375996        0
H       27.24174347      49.07880185      74.79701847        0
H       25.88623696      49.06486582      76.01885831        0
H       30.47081036      52.33055872      76.76451274        0
H       32.58248813      53.40752957      76.14286545        0
H       35.69299413      54.89826358      75.27490538        0
H       37.48353917      53.29647642      75.44034716        0
H       39.20065421      51.97068856      74.52858878        0
H       38.44740421      51.20569459      75.96865413        0
H       39.89284589      49.74071262      73.69239382        0
H       39.86788633      47.76046653      75.29328026        0
H       38.83285222      48.71214341      76.45647774        0
H       35.35262800      50.59313694      72.85127942        0
H       33.51815707      52.20901814      72.67749563        0
C        7.59862116      52.99590957      37.17262982        0
C        7.19316341      54.28534175      37.93368001        0
C        6.98325904      55.37073126      36.84525629        0
C        5.85199794      54.16161092      38.69668806        0
C        5.02884730      53.02655918      38.61995357        0
C        3.82394661      52.95030728      39.33409100        0
C        3.41345121      54.00950067      40.14114669        0
O        2.26831779      54.05871412      40.88599586        0
C        1.53170876      52.84431096      41.01630829        0
C        0.39600563      53.09477757      41.95347195        0
C        0.56334548      52.95520695      43.44363470        0
O       -0.07050494      51.93353089      42.65569239        0
C        4.21028254      55.14934748      40.21674654        0
C        5.41329256      55.22505071      39.50917066        0
C        8.35375051      54.59857285      38.90903250        0
C        9.23021444      55.68234987      38.73587395        0
C       10.27963513      55.92328130      39.63622833        0
C       10.47806789      55.08418705      40.72972919        0
O       11.45929050      55.20247091      41.67498727        0
C       12.38918428      56.27599695      41.51482619        0
C       13.39811034      56.17759274      42.61391520        0
C       13.21402094      56.90631704      43.91783678        0
O       14.09837790      57.39584843      42.89881281        0
C        9.61644286      54.00507309      40.91748081        0
C        8.57119628      53.76326029      40.02122240        0
H        6.86504450      52.73361199      36.40073313        0
H        8.56497455      53.12318266      36.66859517        0
H        7.69719961      52.13212545      37.84026062        0
H        6.78130764      56.35884367      37.27464528        0
H        6.13282110      55.12000581      36.19887059        0
H        7.86171387      55.46797988      36.19547081        0
H        5.30127747      52.17122775      38.00657636        0
H        3.23154678      52.04716854      39.22981762        0
H        1.12169118      52.54458901      40.04519345        0
H        2.17941854      52.04833425      41.40478497        0
H       -0.33471948      53.79275381      41.56751101        0
H        1.55610597      52.76268519      43.83599900        0
H       -0.06909699      53.55343228      44.08882125        0
H        3.89986990      55.98589348      40.83774477        0
H        6.01468411      56.12634624      39.60757061        0
H        9.12430840      56.36474930      37.89751479        0
H       10.92142252      56.77758580      39.44641488        0
H       12.91197845      56.18588939      40.55324972        0
H       11.86406668      57.23932389      41.56248025        0
H       13.96417462      55.25555285      42.59738796        0
H       13.66440272      56.48405503      44.80776218        0
H       12.29111776      57.44648526      44.08815859        0
H        9.75710951      53.34200779      41.76875799        0
H        7.91891226      52.91131219      40.20603964        0
C       11.63128358      22.85106601      21.52793394        0
C       10.82379112      24.11251793      21.93157200        0
C       10.93876490      25.09008762      20.73243274        0
C        9.31324588      23.84445779      22.13799935        0
C        8.71364503      22.60107952      21.88051751        0
C        7.34160960      22.39644988      22.08845447        0
C        6.53653527      23.43245194      22.55780623        0
O        5.19355824      23.36213339      22.80279763        0
C        4.60091867      22.06503402      22.77709178        0
C        3.16970855      22.20635215      23.18020171        0
C        2.75650025      22.18109885      24.62819645        0
O        2.59515091      21.03436166      23.77649133        0
C        7.11199362      24.67674651      22.80374311        0
C        8.47980000      24.88095532      22.60117899        0
C       11.47048823      24.64560889      23.23310399        0
C       12.22188767      25.83104478      23.28682666        0
C       12.80404042      26.27238281      24.48527928        0
C       12.64988297      25.53681526      25.65761656        0
O       13.16546330      25.84992846      26.88498723        0
C       13.96175752      27.03363081      26.97202987        0
C       14.46615739      27.14577501      28.37510374        0
C       13.71009987      27.91716836      29.42318238        0
O       14.86316534      28.46623344      28.76812083        0
C       11.90585254      24.35897201      25.62241263        0
C       11.32601404      23.91760250      24.42940246        0
H       11.29012542      22.44131568      20.56956292        0
H       12.69770244      23.08459976      21.41702387        0
H       11.55464595      22.05149369      22.27384437        0
H       10.47942070      26.06310543      20.94163279        0
H       10.44053416      24.68258127      19.84382309        0
H       11.98493167      25.27273900      20.45759657        0
H        9.29480863      21.75833763      21.51435270        0
H        6.93858556      21.41346599      21.86758264        0
H        4.63738647      21.65258549      21.76241548        0
H        5.12793054      21.39413886      23.46714915        0
H        2.57643954      22.76873503      22.47178569        0
H        3.53204025      22.15584861      25.38614626        0
H        1.86163609      22.72037564      24.91546177        0
H        6.49516510      25.49596580      23.16458427        0
H        8.89353692      25.86305062      22.82026474        0
H       12.37810466      26.44019601      22.40124087        0
H       13.37225009      27.19664283      24.46002880        0
H       14.82468535      26.96187987      26.29655243        0
H       13.35853989      27.91333088      26.71073602        0
H       15.09019306      26.31455986      28.67596968        0
H       13.82052170      27.61722837      30.45805396        0
H       12.74120781      28.32937180      29.17044140        0
H       11.77428222      23.77464958      26.53091253        0
H       10.74990035      22.99387595      24.44582481        0
C       24.23276179       4.11186772      70.73103186        0
C       23.61474439       5.39378415      71.34826237        0
C       23.57876939       6.43978792      70.20310808        0
C       22.15326202       5.21233618      71.82508657        0
C       21.42194218       4.03108211      71.62108237        0
C       20.10128875       3.90358274      72.07628644        0
C       19.48051216       4.95648426      72.74544323        0
O       18.20560948       4.95831290      73.23856860        0
C       17.52026450       3.70759640      73.25753483        0
C       16.20483205       3.91533740      73.93378329        0
C       16.06874728       3.82038123      75.43062392        0
O       15.66306715       2.74633798      74.56558280        0
C       20.18610168       6.14101003      72.94279666        0
C       21.50358473       6.26800851      72.49364464        0
C       24.53242112       5.79487436      72.52867954        0
C       25.36986191       6.92211211      72.50086804        0
C       26.19798420       7.24299780      73.58770547        0
C       26.20926007       6.44229822      74.72698238        0
O       26.96768827       6.63796238      75.84805505        0
C       27.85518848       7.75829308      75.84422505        0
C       28.61997992       7.74284332      77.12893015        0
C       28.13490818       8.49032805      78.34182400        0
O       29.18416393       9.00507323      77.50861463        0
C       25.38308234       5.32089532      74.77194009        0
C       24.55824094       4.99946178      73.68999271        0
H       23.68795328       3.79051835      69.83510915        0
H       25.27446873       4.28172744      70.43089428        0
H       24.23534256       3.27090774      71.43413303        0
H       23.24311549       7.42468717      70.54783308        0
H       22.89333884       6.12632183      69.40570832        0
H       24.56608643       6.57129770      69.74346517        0
H       21.85763072       3.17839095      71.10616981        0
H       19.58943011       2.96620652      71.88446201        0
H       17.33455657       3.36251857      72.23408695        0
H       18.11352952       2.95882229      73.79734493        0
H       15.53487043       4.56166078      73.38286278        0
H       16.96793916       3.69352794      76.02387762        0
H       15.28766563       4.39684155      75.91200489        0
H       19.71267394       6.97298227      73.45805618        0
H       22.02553275       7.20391576      72.68162303        0
H       25.40441966       7.57761530      71.63550541        0
H       26.82109901       8.12753688      73.50359281        0
H       28.56855429       7.67539160      75.01338272        0
H       27.28352100       8.69124627      75.75034833        0
H       29.22317236       6.85414338      77.26019614        0
H       28.41324799       8.11515535      79.31900800        0
H       27.17062272       8.98130113      78.30132102        0
H       25.37886044       4.68695751      75.65637243        0
H       23.92577706       4.11656433      73.76699243        0
C       19.87626364      10.15271364       8.22720011        0
C       18.48361015      10.80160029       8.01344541        0
C       18.44855199      11.24852868       6.52824429        0
C       17.30327596       9.81868913       8.20557100        0
C       17.48031085       8.44648253       8.44539448        0
C       16.38363021       7.58999186       8.62233403        0
C       15.08309016       8.08665517       8.56185995        0
O       13.93507983       7.36139226       8.71876380        0
C       14.07777921       6.02334019       9.19163034        0
C       12.70948753       5.46118722       9.39801042        0
C       11.96695193       5.65999427      10.69307190        0
O       12.62955856       4.42216689      10.38456382        0
C       14.88890902       9.44257034       8.30948328        0
C       15.98075987      10.29804721       8.13729504        0
C       18.39100643      11.97518539       9.01868728        0
C       18.42570256      13.32406126       8.62871859        0
C       18.35330787      14.35908139       9.57394983        0
C       18.24672961      14.06873965      10.93172065        0
O       18.17286442      14.97677982      11.95167590        0
C       18.23608308      16.35959526      11.59581493        0
C       18.19991589      17.16076895      12.85772796        0
C       16.90282375      17.65966566      13.43547668        0
O       17.77928442      18.52171008      12.69464322        0
C       18.20919469      12.73554888      11.33586021        0
C       18.28197051      11.70347556      10.39574248        0
H       20.06458441       9.35036839       7.50364180        0
H       20.67825835      10.89156992       8.10479046        0
H       19.98626910       9.72415520       9.23009994        0
H       17.53884336      11.80836770       6.28220386        0
H       18.48583813      10.38215308       5.85599027        0
H       19.30504106      11.88614828       6.27679035        0
H       18.47273221       8.00630536       8.50358028        0
H       16.58732375       6.53928840       8.80122297        0
H       14.59616669       5.41148915       8.44468695        0
H       14.64147930       6.01244574      10.13298284        0
H       12.14853129       5.34585302       8.48033836        0
H       12.40544606       6.30633979      11.44576581        0
H       10.88371862       5.66722628      10.66707189        0
H       13.87982448       9.84312242       8.25371220        0
H       15.78687579      11.35347002       7.95790820        0
H       18.51331604      13.60676935       7.58366779        0
H       18.38487815      15.38018687       9.20774865        0
H       19.17777970      16.57510386      11.07348749        0
H       17.38632144      16.62185312      10.95149810        0
H       19.03223792      16.95973267      13.51930479        0
H       16.84422199      17.80994448      14.50650342        0
H       15.97347779      17.36060994      12.96705031        0
H       18.12347776      12.49278940      12.39313784        0
H       18.24611232      10.67565432      10.75315695        0
C       53.52338461      44.75937735      49.49490796        0
C       52.28043456      45.29446102      48.73662744        0
C       51.04974246      44.81797916      49.55219990        0
C       52.20192636      46.83951203      48.68306217        0
C       53.11195171      47.67636669      49.34889678        0
C       53.01115515      49.07313185      49.26840181        0
C       51.99568113      49.66566193      48.52043347        0
O       51.79022727      51.00759679      48.36058247        0
C       52.82145328      51.87707973      48.82417880        0
C       52.44691098      53.27365706      48.44985185        0
C       52.80214025      53.84684347      47.10324979        0
O       53.55602025      54.16899545      48.28406496        0
C       51.07513703      48.85057382      47.86611231        0
C       51.17686127      47.45861512      47.94181490        0
C       52.35033558      44.69770021      47.30996034        0
C       51.47077790      43.70395122      46.84997475        0
C       51.57720368      43.17878298      45.55273089        0
C       52.56757117      43.63402287      44.68605464        0
O       52.78340664      43.20617694      43.40517032        0
C       51.92702072      42.17333508      42.91257210        0
C       52.37763664      41.82318606      41.53056169        0
C       51.79268101      42.49680834      40.31845631        0
O       51.38592558      41.17993643      40.71912634        0
C       53.44764692      44.62104914      45.12580582        0
C       53.34348897      45.14462156      46.41782596        0
H       53.52231587      45.07234891      50.54600590        0
H       53.54868179      43.66239959      49.48552238        0
H       54.46341171      45.10500436      49.04941651        0
H       50.10200040      45.06090748      49.05793659        0
H       51.02746551      45.29025564      50.54234185        0
H       51.06698855      43.73328878      49.71502097        0
H       53.92383136      47.26740180      49.94525307        0
H       53.74355594      49.66413140      49.80856723        0
H       52.90259078      51.81937780      49.91555357        0
H       53.78112248      51.60337724      48.36795192        0
H       51.56433644      53.63432540      48.96080823        0
H       53.25326349      53.19162846      46.36584293        0
H       52.16462801      54.61984524      46.69073420        0
H       50.27410486      49.29881063      47.28367327        0
H       50.44748104      46.85726583      47.40323205        0
H       50.68372197      43.30927587      47.48598221        0
H       50.86660621      42.41321758      45.25825298        0
H       52.00971313      41.27793960      43.54304122        0
H       50.88579617      42.52215948      42.89874538        0
H       53.39164979      41.44763547      41.49057968        0
H       52.40932267      42.57975262      39.43189584        0
H       51.08955037      43.30797336      40.46044263        0
H       54.22515292      44.98883676      44.45922332        0
H       54.04890156      45.91667261      46.72077424        0
C       16.23916592      56.34803779      70.43533146        0
C       17.21079703      55.67889247      71.44250883        0
C       17.11831830      56.52049719      72.74248791        0
C       16.81187292      54.23286141      71.82469871        0
C       15.62588428      53.62355097      71.38426787        0
C       15.30459878      52.30709815      71.74664879        0
C       16.16246862      51.56949098      72.56011728        0
O       15.96725197      50.28368809      72.98101416        0
C       14.90096342      49.56032585      72.36935657        0
C       14.94047307      48.15976031      72.88674035        0
C       15.80089973      47.10783004      72.23775938        0
O       14.38459723      47.17657638      72.00153365        0
C       17.33575568      52.16368415      73.01863469        0
C       17.65938050      53.47385528      72.65484038        0
C       18.61036888      55.70667469      70.78158870        0
C       19.65369742      56.53398383      71.22854580        0
C       20.90451795      56.53948637      70.59184534        0
C       21.14006136      55.71896821      69.49163260        0
O       22.30478231      55.63105666      68.78029694        0
C       23.37967911      56.48081112      69.18690039        0
C       24.51867061      56.26443735      68.24271154        0
C       25.59100468      55.24663665      68.52435121        0
O       25.80315202      56.64791899      68.75137409        0
C       20.11622817      54.89047759      69.03610634        0
C       18.86958046      54.88436278      69.66866075        0
H       15.22772350      56.44087894      70.84900282        0
H       16.57535557      57.35996705      70.17636444        0
H       16.16087604      55.78686339      69.49696821        0
H       17.83690227      56.19396350      73.50310492        0
H       16.11904711      56.44513411      73.18936586        0
H       17.30381620      57.58445476      72.55027401        0
H       14.92150946      54.15259987      70.74708263        0
H       14.37176123      51.89481211      71.37610273        0
H       13.93707574      50.00480326      72.64206900        0
H       15.01516188      49.56803707      71.27806364        0
H       14.72231564      48.08491356      73.94357581        0
H       16.47216182      47.40926829      71.44080897        0
H       16.16632144      46.29361196      72.85228243        0
H       18.01176567      51.60237881      73.65875251        0
H       18.59286927      53.89606605      73.02093431        0
H       19.52257880      57.19734272      72.07854230        0
H       21.66875362      57.20140067      70.98626860        0
H       23.07452493      57.53416558      69.12869615        0
H       23.68299597      56.23891883      70.21427822        0
H       24.28086717      56.51377508      67.21697294        0
H       26.10156701      54.79529281      67.68248957        0
H       25.48683137      54.60455346      69.39004087        0
H       20.28591130      54.24171034      68.17912080        0
H       18.09795569      54.21995137      69.28317391        0
C        8.19222678      54.39460589      52.19241599        0
C        9.33048992      53.72322531      53.00471757        0
C        9.38563975      52.25100902      52.51857547        0
C       10.72893951      54.32916717      52.73381426        0
C       10.96010816      55.32009300      51.76611873        0
C       12.24206416      55.84961112      51.55685411        0
C       13.32382816      55.39850961      52.31053180        0
O       14.61586642      55.83246437      52.20625709        0
C       14.84377507      56.99157304      51.40696118        0
C       16.28817238      57.35319309      51.52434169        0
C       16.78857208      58.23184434      52.64042400        0
O       16.57854882      58.74256128      51.31320893        0
C       13.11525203      54.40497035      53.26409458        0
C       11.83766039      53.87947046      53.47678495        0
C        8.94664588      53.87169845      54.49703393        0
C        8.53883477      52.79064740      55.29563536        0
C        8.18521711      52.97046726      56.64195966        0
C        8.22922035      54.23651982      57.22021000        0
O        7.90819549      54.54938265      58.51224778        0
C        7.45926048      53.47962362      59.34704425        0
C        7.10955930      54.05459485      60.68223300        0
C        8.11852327      54.12486231      61.79677044        0
O        7.10375827      53.11040458      61.76119516        0
C        8.63333481      55.32000973      56.44247197        0
C        8.98512950      55.14273841      55.10116352        0
H        8.34044976      54.27491252      51.11238698        0
H        7.21919749      53.94927183      52.43527361        0
H        8.11261329      55.46859913      52.39679750        0
H       10.09860970      51.64823724      53.09291459        0
H        9.69083281      52.19569800      51.46609255        0
H        8.40634702      51.76251250      52.59419462        0
H       10.15225099      55.70887692      51.15109391        0
H       12.35520303      56.61076498      50.79179564        0
H       14.62375219      56.77511895      50.35541506        0
H       14.21297732      57.82011701      51.75283702        0
H       16.95285528      56.61588069      51.09461741        0
H       16.09319673      58.52165277      53.42084182        0
H       17.81263586      58.10660185      52.97167979        0
H       13.95084579      54.03910236      53.85547237        0
H       11.71384744      53.11613656      54.24208209        0
H        8.48137459      51.78310470      54.89402959        0
H        7.87914831      52.09449524      57.20476628        0
H        6.55920597      53.01672829      58.92079055        0
H        8.25057339      52.72522338      59.45059311        0
H        6.31393135      54.78678710      60.64063828        0
H        8.01188150      54.91074182      62.53442693        0
H        9.13962541      53.82545803      61.59614892        0
H        8.67533111      56.31507421      56.88087648        0
H        9.29827429      56.01493341      54.52961857        0
C       10.20047465      46.08628721       7.08395776        0
C        8.82639471      45.71633660       7.70142807        0
C        9.09589205      44.51341923       8.64331840        0
C        8.21756683      46.83593302       8.58009062        0
C        8.89379555      48.03042267       8.87626078        0
C        8.30343723      49.02465295       9.67034863        0
C        7.02220978      48.84610097      10.18833648        0
O        6.33762128      49.73440616      10.96987681        0
C        6.89214507      51.04244659      11.09590392        0
C        5.93548215      51.87208422      11.88794450        0
C        4.79659269      52.60243358      11.22643999        0
O        6.00024805      53.28093758      11.62303490        0
C        6.34316656      47.66064773       9.91721443        0
C        6.92837064      46.67088888       9.12251867        0
C        7.89181203      45.37971894       6.51414865        0
C        7.45217349      44.07652928       6.22926241        0
C        6.61600593      43.81162378       5.13353497        0
C        6.20190638      44.84410432       4.29585702        0
O        5.39589457      44.72340071       3.19764150        0
C        4.95347419      43.40735199       2.85838917        0
C        4.14526629      43.50351446       1.60413057        0
C        2.65229641      43.68969595       1.64307787        0
O        3.24589583      42.40914213       1.38238702        0
C        6.62747713      46.14352732       4.56516108        0
C        7.46094133      46.40895887       5.65565478        0
H       10.95547173      46.27140925       7.85756520        0
H       10.57989852      45.27380408       6.45150466        0
H       10.14653901      46.98266701       6.45533560        0
H        8.17355033      44.10246356       9.06984694        0
H        9.73662260      44.80810097       9.48388336        0
H        9.60875591      43.69664548       8.12062091        0
H        9.89461925      48.22222837       8.49730937        0
H        8.87944676      49.92339757       9.86513362        0
H        7.84470307      50.99899879      11.63604949        0
H        7.05041386      51.48387726      10.10388025        0
H        5.82762267      51.54407918      12.91306640        0
H        4.62208167      52.43709159      10.16870860        0
H        3.90177943      52.79079396      11.80777664        0
H        5.34528187      47.50494290      10.31944093        0
H        6.35858491      45.76621343       8.92103778        0
H        7.74923188      43.23368659       6.84659835        0
H        6.31136842      42.78323628       4.96809155        0
H        5.81526725      42.75380854       2.66797883        0
H        4.34640894      42.99222477       3.67396220        0
H        4.70487314      43.88327597       0.75945263        0
H        2.17837820      44.19772783       0.81216193        0
H        2.16947952      43.83727462       2.60101831        0
H        6.31016251      46.96128537       3.92119001        0
H        7.76793830      47.43845685       5.83266944        0
C       47.68759454      49.25845508      66.95021924        0
C       47.87178403      47.73340319      67.16590342        0
C       48.91428613      47.59018683      68.30584854        0
C       46.58910312      47.01411725      67.64919715        0
C       45.40187340      47.69445728      67.96452338        0
C       44.25772781      47.00442162      68.39157603        0
C       44.27527803      45.61651795      68.51466703        0
O       43.23220509      44.82956918      68.91624299        0
C       41.95468552      45.45559645      69.01813916        0
C       40.95233502      44.40080196      69.35508557        0
C       40.27952178      43.58657587      68.28157458        0
O       39.61315439      44.68565676      68.92532695        0
C       45.44928308      44.92712930      68.22079346        0
C       46.58883851      45.61290469      67.79096410        0
C       48.34835789      47.15630702      65.81082925        0
C       49.65400756      46.68637467      65.59360119        0
C       50.05026931      46.18357348      64.34454661        0
C       49.15007628      46.14122691      63.28291669        0
O       49.40648846      45.68276652      62.02023359        0
C       50.73369333      45.22472006      61.75277741        0
C       50.80247372      44.83217296      60.31167094        0
C       50.52883709      43.42050211      59.86731982        0
O       51.86621635      43.92831419      59.98428863        0
C       47.84993898      46.60193926      63.48171922        0
C       47.45387899      47.10375161      64.72494640        0
H       47.41895133      49.76979912      67.88248386        0
H       48.61405819      49.71959094      66.58538082        0
H       46.90680641      49.48347036      66.21448176        0
H       49.19601271      46.54613813      68.48506311        0
H       48.52022012      47.98469436      69.25083436        0
H       49.83419412      48.14573479      68.08562793        0
H       45.33237305      48.77654187      67.88512370        0
H       43.37289272      47.58840794      68.62287002        0
H       41.96102701      46.19923090      69.82311077        0
H       41.69419744      45.94128513      68.06931174        0
H       41.09848309      43.96513982      70.33433790        0
H       40.60861110      43.71214300      67.25565018        0
H       39.94702795      42.58562809      68.52991726        0
H       45.47953390      43.84478837      68.31788633        0
H       47.48097669      45.03617558      67.55610034        0
H       50.39762836      46.70137404      66.38514038        0
H       51.07308840      45.83562837      64.24192251        0
H       51.45718290      46.03200423      61.92861129        0
H       50.97245712      44.36650274      62.39501809        0
H       50.60070560      45.65009238      59.63258559        0
H       50.14044511      43.26496433      58.86828237        0
H       50.19692565      42.69718904      60.60161846        0
H       47.13430961      46.57285190      62.66248540        0
H       46.42817252      47.45067893      64.83903004        0
C       19.83470963      30.47586275      71.49753685        0
C       19.48461272      30.69763094      72.99235448        0
C       18.43700835      31.84163572      73.01632497        0
C       18.81525938      29.47338565      73.66273122        0
C       18.46189031      28.31171651      72.95742086        0
C       17.86396331      27.21991799      73.60398996        0
C       17.60403044      27.26561660      74.97223063        0
O       17.03090923      26.27331655      75.71749937        0
C       16.87518909      25.00289850      75.08810407        0
C       16.34290367      24.04851553      76.10626722        0
C       17.26245947      23.29040495      77.02700230        0
O       16.67386484      22.67227689      75.87031933        0
C       17.93401832      28.41618889      75.68440874        0
C       18.53384443      29.50321510      75.04237262        0
C       20.81289140      31.05537459      73.70234311        0
C       21.10115948      32.34135245      74.18804670        0
C       22.32448092      32.62790808      74.81361866        0
C       23.28895314      31.63503338      74.96590787        0
O       24.51734596      31.78054744      75.54915606        0
C       24.85855486      33.08325234      76.02805958        0
C       26.25303888      33.02481979      76.56435408        0
C       26.52601262      32.72899751      78.01456580        0
O       26.58448550      34.06515943      77.49361443        0
C       23.01851892      30.35297303      74.49122703        0
C       21.80088951      30.06609775      73.86722850        0
H       18.93783792      30.28732211      70.89518081        0
H       20.32791509      31.35939256      71.07302338        0
H       20.51423646      29.62840193      71.35048226        0
H       18.18041460      32.15130990      74.03602441        0
H       17.50422145      31.53079822      72.52928180        0
H       18.79584103      32.73070164      72.48325625        0
H       18.64298952      28.22202242      71.88915136        0
H       17.61202024      26.35285253      73.00216586        0
H       16.15313186      25.07369536      74.26674371        0
H       17.83999093      24.65085612      74.70178221        0
H       15.34245488      24.28887426      76.44007222        0
H       18.32175398      23.52278477      77.00503575        0
H       16.88510667      22.99426732      77.99861439        0
H       17.73174792      28.46842103      76.75125573        0
H       18.79072704      30.37713750      75.63731712        0
H       20.38707029      33.15396962      74.09077848        0
H       22.48541889      33.64124380      75.16718067        0
H       24.83225485      33.80985858      75.20500787        0
H       24.15799766      33.39019589      76.81611000        0
H       26.98945253      32.75183938      75.82001807        0
H       27.46426451      32.25284834      78.27162907        0
H       25.69522907      32.47446207      78.66074836        0
H       23.76120664      29.56586893      74.60523416        0
H       21.62823065      29.05094682      73.51352674        0
C       13.34638445      29.58698774      36.62214995        0
C       14.08288231      29.72404624      37.98046309        0
C       15.52316597      30.18637976      37.63604020        0
C       13.48197908      30.80858301      38.90723745        0
C       12.43706386      31.65984326      38.51313624        0
C       11.91450895      32.62514585      39.38647442        0
C       12.42674498      32.76237491      40.67508547        0
O       12.00614886      33.65750706      41.61869034        0
C       10.80366408      34.37164265      41.33870832        0
C       10.47107841      35.19814846      42.53750176        0
C        9.66992992      34.63422987      43.68127820        0
O        9.07577212      35.49430030      42.69451745        0
C       13.47373210      31.93655829      41.07726844        0
C       13.99255064      30.97129592      40.20967200        0
C       14.02060292      28.33075373      38.65221147        0
C       15.14251255      27.49841127      38.79805493        0
C       15.04043833      26.23498655      39.40080578        0
C       13.81300613      25.77381689      39.86977440        0
O       13.57530118      24.56787258      40.46935459        0
C       14.68755953      23.68096863      40.60753892        0
C       14.19049431      22.41374509      41.22615231        0
C       14.20346228      22.20872460      42.71710433        0
O       15.19888479      21.62076082      41.86647474        0
C       12.68988782      26.58774156      39.73461825        0
C       12.78969949      27.84606335      39.13382136        0
H       13.40177836      30.51239901      36.03622784        0
H       13.79149922      28.79171341      36.01100362        0
H       12.28589627      29.33921228      36.74682453        0
H       16.17038158      30.22897375      38.51968216        0
H       15.51828967      31.18936589      37.19116107        0
H       16.00101056      29.51651969      36.91056560        0
H       11.99952835      31.59529699      37.51994032        0
H       11.10960899      33.25416871      39.02050126        0
H       10.95198906      35.04186564      40.48441765        0
H        9.98875519      33.67011881      41.12005608        0
H       11.19029093      35.98214915      42.73287874        0
H        9.41838743      33.57922056      43.66486169        0
H        9.83020815      35.04495706      44.67109473        0
H       13.88735270      32.03617349      42.07766777        0
H       14.79948489      30.33530127      40.56752103        0
H       16.12258434      27.80620008      38.44527101        0
H       15.94470516      25.64066722      39.48352487        0
H       15.11023699      23.44475429      39.62183665        0
H       15.45837807      24.13952650      41.24124363        0
H       13.44557558      21.90588933      40.62778947        0
H       13.46282056      21.54676349      43.14881430        0
H       14.50489736      23.03061448      43.35442326        0
H       11.72429987      26.24234004      40.09855952        0
H       11.88876978      28.45175845      39.05071582        0
C       50.92583625      47.25095834      15.05732025        0
C       51.39398675      48.72340022      14.91955698        0
C       52.86994600      48.74451703      15.39694027        0
C       51.39541004      49.24180795      13.46097314        0
C       51.10307337      48.42451013      12.35717464        0
C       51.10697695      48.93515890      11.05072337        0
C       51.40523489      50.27626472      10.81788573        0
O       51.44031710      50.89450269       9.59923735        0
C       50.92532699      50.16114386       8.48958910        0
C       50.95359922      51.05681072       7.29467807        0
C       49.81387382      51.99244741       6.98861009        0
O       49.97785989      50.74743949       6.28896356        0
C       51.71265582      51.09759137      11.89993061        0
C       51.70491086      50.59125024      13.20269169        0
C       50.44250028      49.56732615      15.80208243        0
C       50.84477922      50.17021642      17.00517864        0
C       49.94625067      50.91611723      17.78379803        0
C       48.62356975      51.07443331      17.37802711        0
O       47.64944511      51.76817432      18.04143221        0
C       48.01374092      52.37000986      19.28557637        0
C       46.79289337      53.01583808      19.85833201        0
C       46.46249961      54.45772085      19.58092702        0
O       47.05252372      54.04476140      20.82248818        0
C       48.20813282      50.48428848      16.18585408        0
C       49.10161560      49.74040604      15.40956778        0
H       51.58999008      46.56290461      14.52043944        0
H       50.91816223      46.93659640      16.10860799        0
H       49.91161597      47.09871904      14.67034218        0
H       53.28295536      49.75928454      15.43151739        0
H       53.50911392      48.15889179      14.72431121        0
H       52.97779376      48.31139903      16.39900764        0
H       50.86251248      47.37155572      12.48150944        0
H       50.87577008      48.25121958      10.24063668        0
H       51.55768355      49.28954442       8.28599322        0
H       49.89918133      49.83214361       8.69648261        0
H       51.95365093      51.32228973       6.97922067        0
H       49.00750327      52.07707611       7.70916007        0
H       50.03089125      52.90404049       6.44452903        0
H       51.95305945      52.14455426      11.73296111        0
H       51.93496155      51.26928110      14.02186128        0
H       51.86291796      50.07417432      17.37110293        0
H       50.31970604      51.35663636      18.70261813        0
H       48.36540282      51.60422234      19.98982478        0
H       48.80267845      53.11704953      19.12580307        0
H       45.99116788      52.31778750      20.06037429        0
H       45.42158126      54.75652307      19.59888229        0
H       47.08214495      55.01091452      18.88626313        0
H       47.17835611      50.60127389      15.85420688        0
H       48.73744195      49.29862659      14.48347066        0
C       50.87614889      24.01023837       5.71456399        0
C       49.65290495      24.09332697       4.76430127        0
C       50.21980973      23.92929804       3.32955045        0
C       48.62916346      22.95000170       4.96672680        0
C       48.83997039      21.88081753       5.85228496        0
C       47.88294373      20.86798389       6.01309632        0
C       46.69232226      20.90052580       5.28984150        0
O       45.68318663      19.98087926       5.35653745        0
C       45.75751814      19.01763793       6.40581824        0
C       44.51151689      18.19516338       6.36283784        0
C       43.25997615      18.62935442       7.07921171        0
O       44.12823166      17.61943020       7.62016167        0
C       46.47358626      21.94566783       4.39556026        0
C       47.42434377      22.95793747       4.23745243        0
C       48.99570083      25.47143442       5.01982276        0
C       49.04208805      26.52703523       4.09445761        0
C       48.44508910      27.76680132       4.37111996        0
C       47.78958446      27.98017191       5.58107264        0
O       47.17319483      29.13511400       5.97664100        0
C       47.22620112      30.24161547       5.07350369        0
C       46.54990090      31.40267560       5.72937657        0
C       45.08296442      31.67357147       5.52974623        0
O       46.08956235      32.41848608       4.82831846        0
C       47.73266381      26.94278943       6.50990681        0
C       48.32742736      25.70761936       6.23622046        0
H       51.45283507      23.09149575       5.55299584        0
H       51.56002241      24.85268432       5.55119299        0
H       50.58491691      24.03466820       6.77104812        0
H       49.45166659      24.06420691       2.55930300        0
H       50.64671235      22.92854372       3.18753862        0
H       51.02036763      24.65095066       3.12537920        0
H       49.75028484      21.80648637       6.44206808        0
H       48.10720638      20.06762324       6.71066292        0
H       46.61691360      18.35542374       6.25114597        0
H       45.84982667      19.52121019       7.37634136        0
H       44.42581451      17.58984636       5.47045770        0
H       43.24754493      19.60591393       7.55119133        0
H       42.30437635      18.30711617       6.68283536        0
H       45.55191047      21.98104765       3.82017690        0
H       47.20850526      23.76516419       3.54068364        0
H       49.54478441      26.41667697       3.13798044        0
H       48.51598567      28.54127718       3.61420701        0
H       48.26976633      30.51632532       4.86961998        0
H       46.71993588      29.98494549       4.13337910        0
H       47.02602262      31.71454899       6.64964966        0
H       44.54499111      32.18378443       6.31929270        0
H       44.49333890      30.96346304       4.96350489        0
H       47.22171753      27.09343494       7.45877738        0
H       48.25732164      24.92271947       6.98752915        0
C       14.85840121      37.85725279      42.59046485        0
C       14.26381465      38.18151274      41.22369818        0
C       15.22848179      38.43496274      40.07742141        0
C       14.75214598      38.90800734      38.83203851        0
C       15.67409957      39.27013014      37.80836664        0
C       17.06248231      39.03451369      37.98882947        0
C       17.50547616      38.41156573      39.17129255        0
C       16.59619729      38.16091745      40.20916370        0
C       18.95010860      38.03790416      39.37924934        0
N       17.97420099      39.21008866      36.92547519        0
C       15.16625857      39.88597798      36.51352991        0
C       14.87916549      38.83266839      35.45333923        0
N       13.37522749      39.20058219      38.68317515        0
H       14.05845316      37.75956184      43.33195701        0
H       15.53553896      38.64831345      42.92920187        0
H       15.40798380      36.91044248      42.57394918        0
H       13.64136001      39.07592213      41.35280482        0
H       13.60491781      37.35222296      40.93787074        0
H       16.97965495      37.73371399      41.13213392        0
H       19.56865353      38.93923760      39.43706396        0
H       19.30329225      37.40098601      38.56169364        0
H       19.09336257      37.47557617      40.30824747        0
H       17.71361818      39.92742693      36.26109678        0
H       18.93393039      39.33034670      37.22958544        0
H       14.26587279      40.48399413      36.69477490        0
H       15.88028482      40.62157594      36.12804147        0
H       14.50756472      39.30838703      34.54019059        0
H       14.12245363      38.11850650      35.79456120        0
H       15.78050785      38.26696580      35.19587128        0
H       13.05871587      39.15240366      37.72109593        0
H       12.77677044      38.64078450      39.28001220        0
C       30.78668854       6.24821663      54.12448430        0
C       29.35760935       6.50454811      53.65677105        0
C       29.14066382       6.79906408      52.18199480        0
C       27.87173266       7.21416130      51.71385637        0
C       27.71038582       7.61667481      50.35702716        0
C       28.78826938       7.47821342      49.44341672        0
C       29.99726973       6.91008894      49.88847782        0
C       30.17094869       6.61990999      51.24951454        0
C       31.14144152       6.63823621      48.94677782        0
N       28.60185950       7.69315661      48.06072708        0
C       26.37521311       8.17112790      49.88409079        0
C       25.46139072       7.07997685      49.34538324        0
N       26.82150515       7.41084115      52.64229811        0
H       30.80517979       6.11201809      55.21093681        0
H       31.44372281       7.08945807      53.88024244        0
H       31.19933141       5.34019332      53.67283943        0
H       28.98258135       7.35766933      54.23610225        0
H       28.75423207       5.62745009      53.92172169        0
H       31.13634829       6.23787776      51.57118456        0
H       31.54476264       7.57994197      48.56094797        0
H       30.81125460       6.01018408      48.11291460        0
H       31.95843738       6.10544527      49.44519889        0
H       27.89277537       8.37801140      47.83258269        0
H       29.46273616       7.88346680      47.56002859        0
H       25.87026512       8.71101129      50.69323915        0
H       26.52441457       8.94503620      49.12360143        0
H       24.50830138       7.51139595      49.02330549        0
H       25.24955293       6.32370899      50.10844036        0
H       25.90864853       6.57086850      48.48544352        0
H       25.90045430       7.32235488      52.22765040        0
H       26.89560578       6.82426687      53.46581403        0
C       47.51914038      48.91079558      43.70569814        0
C       46.15738632      48.49733017      44.25469819        0
C       45.01064750      49.48393687      44.11198413        0
C       43.77133964      49.23829561      44.74871167        0
C       42.74837589      50.22917252      44.72144319        0
C       42.92230474      51.40670384      43.94758448        0
C       44.09735620      51.56180961      43.18750362        0
C       45.13555200      50.62718799      43.31168526        0
C       44.29727711      52.73555001      42.26435846        0
N       41.85789743      52.31351302      43.75389909        0
C       41.46108710      50.01192340      45.50212468        0
C       40.39169827      49.32802269      44.66273493        0
N       43.62952142      48.09405308      45.56984593        0
H       48.26210841      48.13793281      43.92919908        0
H       47.86339325      49.84777095      44.15581190        0
H       47.49183177      49.03507494      42.61823667        0
H       46.29699956      48.28517227      45.32221101        0
H       45.86561663      47.56169819      43.76172033        0
H       46.05318946      50.80643003      42.75740159        0
H       44.36186243      53.66330825      42.84179738        0
H       43.47255280      52.80485784      41.54754121        0
H       45.22037900      52.64056759      41.68243644        0
H       41.20125281      52.36281392      44.52218518        0
H       42.16020555      53.24072491      43.47656627        0
H       41.65083718      49.42632057      46.40889469        0
H       41.08050475      50.96123530      45.89391951        0
H       39.48431223      49.17906958      45.25661989        0
H       40.72835354      48.34823356      44.30812392        0
H       40.12603704      49.92752641      43.78595297        0
H       42.66799851      47.78575243      45.66215854        0
H       44.22277833      47.32083698      45.29070105        0
C       54.08436508      12.27121212      67.87793829        0
C       52.56993246      12.32994194      67.70538837        0
C       52.00883919      12.08485253      66.31474984        0
C       50.63486876      12.29395320      66.04993340        0
C       50.14338274      12.19206919      64.71685555        0
C       51.00344886      11.75413644      63.67561121        0
C       52.32860627      11.39296194      63.98551032        0
C       52.82238931      11.60163219      65.28143632        0
C       53.25949497      10.82106710      62.94810278        0
N       50.49966453      11.46727496      62.38848585        0
C       48.69087818      12.52915949      64.41623314        0
C       47.78849211      11.30758156      64.51284861        0
N       49.79941297      12.79192560      67.07837979        0
H       54.35283392      12.52570893      68.90867923        0
H       54.58967164      12.98067455      67.21433930        0
H       54.47201678      11.26733119      67.67616414        0
H       52.25192439      13.32773969      68.03304213        0
H       52.12465157      11.59482323      68.38721631        0
H       53.86640779      11.36843089      65.47394389        0
H       53.47794110      11.57182825      62.18195572        0
H       52.81567602       9.93619517      62.48031315        0
H       54.21227250      10.50709058      63.38788195        0
H       49.69646438      12.01985631      62.11756219        0
H       51.20827039      11.47965639      61.66339964        0
H       48.32652102      13.31294293      65.09009885        0
H       48.59639992      12.98817955      63.42632727        0
H       46.75167989      11.58701853      64.30031344        0
H       47.82103452      10.86523807      65.51402078        0
H       48.08280559      10.53407861      63.79605020        0
H       48.82252811      12.55250215      66.95004581        0
H       50.10687318      12.53306357      68.00907707        0
C       41.92458599      19.39461116      58.65834651        0
C       43.43801915      19.23584640      58.76343056        0
C       44.30399840      20.16860249      57.93348115        0
C       45.70145704      19.96390294      57.85069814        0
C       46.48606062      20.75850404      56.96636689        0
C       45.88919411      21.83999231      56.26649400        0
C       44.52934112      22.13258817      56.48492974        0
C       43.75071768      21.27498914      57.27553620        0
C       43.86305170      23.32859249      55.85607048        0
N       46.67575947      22.75335174      55.53173599        0
C       47.96780215      20.46173140      56.79275458        0
C       48.82747737      21.25181005      57.76877816        0
N       46.27713275      18.84552859      58.49992932        0
H       41.42598862      18.62442977      59.25625313        0
H       41.58300210      19.28973351      57.62328303        0
H       41.59650948      20.36795216      59.03747270        0
H       43.66943950      18.20326371      58.47307894        0
H       43.71707087      19.35892820      59.81725452        0
H       42.69106766      21.49489192      57.37653725        0
H       43.82408501      23.21060029      54.76845761        0
H       44.40495367      24.24614677      56.10754044        0
H       42.83569286      23.45488263      56.21433937        0
H       47.51808776      22.35877771      55.13340115        0
H       46.15244196      23.26891735      54.83291093        0
H       48.16550084      19.38999413      56.90878065        0
H       48.28560719      20.66361481      55.76426916        0
H       49.88457539      21.00781946      57.62301064        0
H       48.56732063      21.02129713      58.80716862        0
H       48.70777566      22.33069267      57.62591113        0
H       47.25808785      18.97418789      58.72190027        0
H       45.76503781      18.54882397      59.32301128        0
C       47.22794261      31.06297833      58.63392452        0
C       46.08226719      30.09249651      58.90285147        0
C       44.67427886      30.66130512      58.95572549        0
C       43.59019838      29.85202310      59.36982414        0
C       42.29890476      30.42720816      59.54520478        0
C       42.06984156      31.78006163      59.18050477        0
C       43.12163499      32.52685253      58.61609307        0
C       44.40986169      31.97637329      58.55102586        0
C       42.91688105      33.93141000      58.11099306        0
N       40.76526626      32.31925152      59.16878254        0
C       41.16162948      29.58303660      60.09995923        0
C       40.36689998      28.89861220      58.99730059        0
N       43.83916822      28.52420624      59.79241291        0
H       48.18525205      30.53351715      58.68392984        0
H       47.25079899      31.86891948      59.37485079        0
H       47.15058786      31.50768711      57.63642068        0
H       46.29430952      29.61058284      59.86559947        0
H       46.10812877      29.31771093      58.12657678        0
H       45.21260086      32.59927731      58.16499865        0
H       42.67979932      34.60127321      58.94371022        0
H       42.10783786      33.96002604      57.37381535        0
H       43.81432208      34.31904752      57.61691946        0
H       40.13639259      31.91572636      59.85110329        0
H       40.74443376      33.33201795      59.21232240        0
H       41.54174879      28.83284224      60.80272901        0
H       40.49504611      30.19085024      60.72106179        0
H       39.56432102      28.29360901      59.43097554        0
H       41.00233443      28.23801433      58.39821296        0
H       39.91080685      29.62800303      58.32003012        0
H       43.03262715      27.91716811      59.69705344        0
H       44.65013290      28.10548781      59.35110813        0
C       16.26986007      28.97586938      48.57452528        0
C       16.93899121      27.61879998      48.38125089        0
C       16.99875729      27.05677554      46.97081601        0
C       17.44731063      25.73401107      46.74556144        0
C       17.37379053      25.17019956      45.43951901        0
C       16.97364637      25.97570788      44.34100657        0
C       16.68616906      27.33715630      44.55627764        0
C       16.66114833      27.84548858      45.86309110        0
C       16.35922153      28.26960214      43.41896416        0
N       17.06945128      25.49820757      43.01601799        0
C       17.74816002      23.71220805      45.22070075        0
C       19.22042851      23.54572450      44.87343067        0
N       17.78267048      24.91854051      47.85290348        0
H       16.24169267      29.22996781      49.63937814        0
H       15.23968924      28.96960178      48.20338641        0
H       16.82095366      29.77100346      48.06186438        0
H       16.39570270      26.90457560      49.01276303        0
H       17.96490796      27.69187571      48.76298206        0
H       16.37757060      28.88564445      46.00120714        0
H       15.41023672      27.98156443      42.95549418        0
H       17.15568561      28.25282068      42.66785559        0
H       16.26224252      29.30598534      43.75995818        0
H       16.94946620      24.49819434      42.91878954        0
H       16.47929906      25.99858789      42.36075814        0
H       17.50615674      23.11205992      46.10524823        0
H       17.12522133      23.26528392      44.43855919        0
H       19.45698863      22.48633190      44.73214226        0
H       19.86479497      23.93279531      45.66969729        0
H       19.47665820      24.07441953      43.94955020        0
H       18.43265900      24.17615175      47.61951308        0
H       18.11812473      25.44260957      48.65325392        0
C       57.95895452      12.51725333      18.36151784        0
C       56.63485572      12.02681504      18.93854598        0
C       55.44167528      12.96440405      18.86097473        0
C       54.23519499      12.64450283      19.52709341        0
C       53.16906826      13.58855949      19.56124374        0
C       53.26620354      14.79492184      18.81898827        0
C       54.40862509      15.02513405      18.02879716        0
C       55.49053839      14.13509774      18.09273569        0
C       54.52716109      16.23326082      17.13649071        0
N       52.15714950      15.65804023      18.68555046        0
C       51.91797450      13.29062301      20.37350690        0
C       50.85386463      12.58404201      19.54628186        0
N       54.17014584      11.47144478      20.31663016        0
H       58.74206467      11.77250130      18.53858829        0
H       58.27550134      13.45521668      18.82955432        0
H       57.89180486      12.67199904      17.27970998        0
H       56.81739886      11.78997314      19.99432549        0
H       56.36929969      11.09381914      18.42613740        0
H       56.38136676      14.37175690      17.51668547        0
H       54.56888750      17.14566186      17.73991889        0
H       53.67792542      16.28624875      16.44743933        0
H       55.43469715      16.19715004      16.52424380        0
H       51.52358954      15.65510193      19.47451776        0
H       52.40924297      16.60568603      18.42778722        0
H       52.16201006      12.68785336      21.25571040        0
H       51.50836825      14.20989104      20.80560438        0
H       49.97318546      12.37692973      20.16251599        0
H       51.22213212      11.63126774      19.15172803        0
H       50.53436375      13.19638619      18.69676376        0
H       53.22659563      11.11747574      20.42850571        0
H       54.78788787      10.73431632      19.99604447        0
C        9.03007413      31.86907819      24.01778030        0
C        7.65786402      31.42901983      24.51789717        0
C        6.49809035      32.39339621      24.33439445        0
C        5.24185679      32.12343525      24.92654636        0
C        4.20155988      33.09439235      24.86282755        0
C        4.38017099      34.27559052      24.09565252        0
C        5.57834617      34.45387627      23.37793594        0
C        6.62932201      33.53939196      23.53904890        0
C        5.78832126      35.63188800      22.46249577        0
N        3.30601944      35.16180888      23.86414589        0
C        2.89170622      32.85179349      25.59713157        0
C        1.86632363      32.14794338      24.72016330        0
N        5.09300198      30.97610746      25.74211122        0
H        9.77939998      31.11055389      24.26762564        0
H        9.33989930      32.81221898      24.47987237        0
H        9.03913987      31.99354913      22.93003568        0
H        7.76341949      31.21886897      25.58970924        0
H        7.40198045      30.48826488      24.01483889        0
H        7.56249454      33.73669837      23.01782361        0
H        5.81434943      36.56032613      23.04186398        0
H        4.98848049      35.68574665      21.71673796        0
H        6.73323724      35.55514554      21.91384618        0
H        2.62158301      35.19789646      24.60853875        0
H        3.60004658      36.09487449      23.59775864        0
H        3.06030135      32.26934525      26.51009233        0
H        2.47913189      33.79331174      25.97510642        0
H        0.94139760      31.98109116      25.28132991        0
H        2.23427078      31.17507998      24.37778314        0
H        1.62054249      32.74280361      23.83446575        0
H        4.13493674      30.64923436      25.80009559        0
H        5.71065908      30.21468200      25.48429398        0
C       13.94721005      36.31004042      63.63794867        0
C       12.54908446      35.83650522      64.02231576        0
C       11.38065059      36.75197920      63.69760097        0
C       10.08355782      36.45544252      64.17849796        0
C        9.02242102      37.38558640      63.98393046        0
C        9.23377082      38.54776222      63.19629653        0
C       10.48803934      38.74667590      62.58820898        0
C       11.54869687      37.87639040      62.87872219        0
C       10.74475834      39.90214129      61.65610011        0
N        8.15766508      39.38676027      62.83455276        0
C        7.65759481      37.11890931      64.60029556        0
C        6.74384901      36.35113288      63.65611561        0
N        9.89610441      35.32969836      65.01589043        0
H       14.69416652      35.58739763      63.98307831        0
H       14.18043317      37.27785613      64.09399144        0
H       14.05524830      36.40047922      62.55217147        0
H       12.55943484      35.66413678      65.10595244        0
H       12.37333561      34.87173826      63.53048145        0
H       12.52004188      38.09088268      62.44065996        0
H       10.68498604      40.84867831      62.20276023        0
H       10.01789056      39.90349991      60.83728260        0
H       11.73945954      39.84246312      61.20136940        0
H        7.40491209      39.42142521      63.50985827        0
H        8.44457711      40.32102422      62.56463066        0
H        7.75805228      36.57195926      65.54471155        0
H        7.18010046      38.05628535      64.90503234        0
H        5.77591350      36.16861493      64.13363402        0
H        7.17460437      35.38195063      63.38370403        0
H        6.56359984      36.90854175      62.73116545        0
H        8.94820552      34.97031455      64.99519777        0
H       10.56028986      34.58341775      64.84366470        0
C       18.91844448      18.44021789      32.40079961        0
C       17.54026025      17.87152461      32.72317360        0
C       17.40752950      16.36146399      32.82743047        0
C       16.13219030      15.76166992      32.95153754        0
C       16.00594777      14.34333937      32.91363365        0
C       17.16826311      13.52863116      32.88261477        0
C       18.43634975      14.13918319      32.92395640        0
C       18.53938267      15.53602926      32.85328512        0
C       19.70529539      13.33063460      33.00049420        0
N       17.07862348      12.12769575      33.03135807        0
C       14.62582163      13.70403795      32.93148683        0
C       14.15536854      13.39846576      34.34612011        0
N       14.97655814      16.57835317      32.91678676        0
H       18.85785532      19.52853309      32.29511130        0
H       19.30896407      18.03288977      31.46238950        0
H       19.63652110      18.22753145      33.19948228        0
H       16.86048707      18.22248968      31.93652348        0
H       17.20917414      18.30934697      33.67304595        0
H       19.53374436      15.97418368      32.82716766        0
H       19.84076111      12.75268842      32.08072816        0
H       19.67739300      12.65311515      33.86013923        0
H       20.58602317      13.96987073      33.12486352        0
H       16.22355555      11.72003692      32.67562029        0
H       17.88952807      11.62981073      32.68125835        0
H       13.89380523      14.34604380      32.42834858        0
H       14.61371078      12.79111194      32.32654169        0
H       13.15756521      12.94893497      34.32274509        0
H       14.10256855      14.30740248      34.95449391        0
H       14.82901114      12.69774943      34.85003427        0
H       14.17849284      16.16061413      33.38227907        0
H       15.13548239      17.51764440      33.26350543        0
C       35.71755455       6.25903519      61.05931513        0
C       34.30849256       5.80446597      61.42624833        0
C       33.14595234       6.66137135      60.95403713        0
C       31.83108413       6.39455520      61.40300963        0
C       30.76933982       7.28138688      61.06350406        0
C       31.00400050       8.35881549      60.16920516        0
C       32.28332150       8.51460946      59.60211374        0
C       33.33930189       7.69726672      60.03065245        0
C       32.57025515       9.57111629      58.56708027        0
N       29.93635666       9.13738100      59.67246355        0
C       29.38001266       7.05719926      61.64081088        0
C       28.52152180       6.18013257      60.74101354        0
N       31.61748546       5.35893059      62.34403148        0
H       36.45584218       5.58889265      61.51220737        0
H       35.91718418       7.27280539      61.42187998        0
H       35.87606911       6.23795402      59.97617513        0
H       34.26930790       5.74584986      62.52128951        0
H       34.16793528       4.79097852      61.03045704        0
H       34.32775937       7.88144479      59.61780037        0
H       32.47318370      10.56819541      59.00838821        0
H       31.88322905       9.47509409      57.71998192        0
H       33.58612072       9.48131002      58.16742548        0
H       29.15194646       9.22932297      60.30501678        0
H       30.22457373      10.04324511      59.31980692        0
H       29.44194451       6.61313661      62.64088109        0
H       28.87734994       8.01297115      61.82348402        0
H       27.53420803       6.03190925      61.18987562        0
H       28.97634425       5.19530138      60.59162631        0
H       28.37884238       6.63527136      59.75550937        0
H       30.67602265       4.98338520      62.31737318        0
H       32.29801501       4.61011639      62.28161687        0
C       11.64518052      51.39800255      63.20020195        0
C       12.81196415      50.42522165      63.33819508        0
C       12.70124610      49.08633969      62.62833128        0
C       13.66398277      48.07448828      62.85403109        0
C       13.48052229      46.77907873      62.29074449        0
C       12.40250168      46.54017113      61.39828536        0
C       11.54571670      47.60372052      61.05578159        0
C       11.67891033      48.84116240      61.70214544        0
C       10.44921376      47.44347804      60.03507814        0
N       12.30445523      45.32606974      60.68475571        0
C       14.45496281      45.66068404      62.62754142        0
C       15.60795371      45.58913620      61.63689481        0
N       14.69805400      48.29984247      63.79401887        0
H       11.82920310      52.29033301      63.80778163        0
H       10.70714908      50.94734550      63.54084917        0
H       11.51834135      51.72715170      62.16370003        0
H       12.94128283      50.23533978      64.41118530        0
H       13.71584238      50.92996840      62.97515406        0
H       10.96485128      49.62379769      61.45920867        0
H        9.69076849      46.74472017      60.40228453        0
H       10.85771108      47.07847104      59.08707995        0
H        9.95040120      48.39544174      59.82359972        0
H       12.68812517      44.52260692      61.16550630        0
H       11.37012319      45.13070669      60.34287490        0
H       14.84696092      45.78002842      63.64403639        0
H       13.93778903      44.69625988      62.67177409        0
H       16.29321859      44.78163589      61.91364577        0
H       16.17727333      46.52434189      61.61851131        0
H       15.25138133      45.39495902      60.62009662        0
H       15.52316218      47.73604059      63.62249292        0
H       14.95164604      49.27680970      63.88870181        0
C       50.69458069      19.71979695      29.08904719        0
C       50.98461333      21.19110091      29.36810727        0
C       51.05264980      22.13413982      28.17864576        0
C       51.48603364      23.47022344      28.34806998        0
C       51.67497824      24.30684815      27.21079496        0
C       51.30505386      23.84382387      25.92065813        0
C       50.72218415      22.56884153      25.78947285        0
C       50.64343032      21.72108810      26.90387902        0
C       50.21123547      22.06120718      24.46619257        0
N       51.30731233      24.71248306      24.80791109        0
C       52.24992180      25.70436206      27.38448427        0
C       51.16210999      26.74927129      27.58627121        0
N       51.91342325      23.90273940      29.62632384        0
H       50.73514317      19.14778463      30.02201430        0
H       51.43018136      19.29146143      28.40023981        0
H       49.69548033      19.58215248      28.66288286        0
H       51.94740504      21.23047633      29.89305314        0
H       50.21283133      21.56220949      30.05381485        0
H       50.24298622      20.72123284      26.75776065        0
H       51.04289640      21.92473960      23.76758036        0
H       49.48468142      22.76140996      24.04117961        0
H       49.70294476      21.09665319      24.57130262        0
H       52.00036880      25.44857388      24.84937535        0
H       51.34491117      24.23023673      23.91681604        0
H       52.95218147      25.73372823      28.22539840        0
H       52.87606262      25.97511294      26.52764074        0
H       51.61008482      27.73946102      27.71695653        0
H       50.55871829      26.53133447      28.47368007        0
H       50.48648124      26.79587079      26.72599133        0
H       51.83248504      24.90507755      29.75618703        0
H       51.46398791      23.41050354      30.39016315        0
C       41.85157569      20.08959631      73.51171836        0
C       42.40427469      18.83625164      72.84061496        0
C       42.24479231      18.71445024      71.33446098        0
C       42.57718605      17.50796200      70.67450181        0
C       42.29930027      17.35644940      69.28566818        0
C       41.81025530      18.45855749      68.53608073        0
C       41.63835285      19.70154944      69.17478817        0
C       41.81538525      19.80191659      70.56236704        0
C       41.22456473      20.93482019      68.41475229        0
N       41.70281280      18.39151443      67.13011445        0
C       42.55072963      16.02045400      68.60326597        0
C       43.95201562      15.93290218      68.01622250        0
N       43.00265645      16.39509690      71.43881265        0
H       41.97819159      20.01860051      74.59716714        0
H       40.78345155      20.21486657      73.30567595        0
H       42.37948431      20.98882533      73.17785728        0
H       41.90459479      17.97906343      73.30926709        0
H       43.47371676      18.77176060      73.07662019        0
H       41.61734394      20.76069680      71.03452883        0
H       40.20725604      20.81648180      68.02820165        0
H       41.91380759      21.12370689      67.58525435        0
H       41.23736280      21.82618175      69.05121340        0
H       41.50933360      17.46751510      66.76587924        0
H       41.06454535      19.07533147      66.73891821        0
H       42.38922552      15.19119643      69.30141775        0
H       41.80467850      15.83753486      67.82256916        0
H       44.10192389      14.95767400      67.54220424        0
H       44.71739434      16.05402780      68.78991267        0
H       44.11803747      16.70521669      67.25813659        0
H       43.56934908      15.74114789      70.91031726        0
H       43.47139350      16.65238974      72.30010513        0
C       40.02694838      37.47961849       6.00167248        0
C       38.97567943      38.58322329       6.06182941        0
C       39.34735393      39.94259040       5.49371926        0
C       38.48810277      41.05234747       5.67196703        0
C       38.90441682      42.34911652       5.25470442        0
C       40.12305324      42.50797311       4.54380470        0
C       40.88941999      41.36890341       4.23118854        0
C       40.51703404      40.11719694       4.74241137        0
C       42.13586692      41.45646809       3.38944371        0
N       40.46809495      43.74580685       3.95943007        0
C       38.02983619      43.55805591       5.55025052        0
C       37.05247548      43.84684287       4.42009305        0
N       37.30719998      40.89790839       6.43700430        0
H       39.65112514      36.57855281       6.49776579        0
H       40.95092197      37.78035364       6.50651547        0
H       40.26578884      37.20965277       4.96782660        0
H       38.71257100      38.71321709       7.11916664        0
H       38.08216567      38.22612224       5.53487977        0
H       41.16170370      39.26754276       4.53287519        0
H       42.90886188      42.02400356       3.91738746        0
H       41.91790736      41.93624465       2.42969957        0
H       42.54453582      40.46498453       3.16645926        0
H       40.11517199      44.55679098       4.45098515        0
H       41.45914382      43.84192277       3.76809414        0
H       37.48062954      43.42008813       6.48860257        0
H       38.64499994      44.44203624       5.74947784        0
H       36.43401960      44.71501730       4.66913378        0
H       36.38573714      42.99671468       4.24172673        0
H       37.57577529      44.06343655       3.48309161        0
H       36.58888948      41.57427017       6.20320528        0
H       36.92885440      39.95776520       6.41009382        0
C        4.51283371       5.15376434      75.34133991        0
C        5.28134054       6.19154532      74.52946756        0
C        6.00801561       5.71458578      73.28318391        0
C        6.87709460       6.58485632      72.58391538        0
C        7.65583712       6.09169189      71.49792073        0
C        7.46475318       4.76354014      71.03403665        0
C        6.47806747       3.96048658      71.63742950        0
C        5.79808966       4.42716821      72.77172558        0
C        6.15278134       2.58175603      71.12447444        0
N        8.08488704       4.31059982      69.84952877        0
C        8.67337441       6.99763813      70.82142058        0
C        8.07345346       7.75247766      69.64405066        0
N        7.10992075       7.88566792      73.09120821        0
H        4.09216813       5.61886608      76.23911042        0
H        5.16496656       4.33452570      75.66166176        0
H        3.67982141       4.73348155      74.76843814        0
H        6.01899890       6.64083334      75.20628872        0
H        4.57536541       6.97718416      74.23292978        0
H        5.08513943       3.76062056      73.25009030        0
H        7.00756996       1.91348969      71.26972887        0
H        5.89143661       2.61938004      70.06189075        0
H        5.29621075       2.14577238      71.64980964        0
H        8.97850194       4.74150817      69.65041405        0
H        8.14813029       3.30069950      69.78528544        0
H        9.09840874       7.70845899      71.53922775        0
H        9.54621077       6.42309803      70.49339685        0
H        8.82846211       8.40027695      69.18737373        0
H        7.23403936       8.38130047      69.95875419        0
H        7.70676461       7.06688144      68.87319120        0
H        7.40191720       8.54550382      72.37885165        0
H        6.32899938       8.25884645      73.61907028        0
C        9.18102017      11.77228569      54.06937290        0
C        7.71526053      11.36627494      54.18527272        0
C        6.67075937      12.34086280      53.66761855        0
C        5.29502202      12.10595731      53.89959208        0
C        4.33281932      13.08898922      53.52966011        0
C        4.73960185      14.24447894      52.81198325        0
C        6.09186154      14.38486666      52.44563415        0
C        7.03892336      13.46099788      52.91074654        0
C        6.56926381      15.53236819      51.59407137        0
N        3.78888748      15.13834556      52.27353687        0
C        2.86724810      12.88636418      53.88295498        0
C        2.10577541      12.17131531      52.77626973        0
N        4.90435501      10.98533155      54.67111139        0
H        9.81708077      11.01110277      54.53337559        0
H        9.37288481      12.72422870      54.57536475        0
H        9.48972455      11.86452410      53.02297085        0
H        7.51930335      11.18633878      55.24984316        0
H        7.58651908      10.41475967      53.65460497        0
H        8.08303519      13.62986925      52.66028784        0
H        6.45583573      16.47701743      52.13547160        0
H        6.00506841      15.57535438      50.65671526        0
H        7.62629047      15.42636499      51.32718198        0
H        2.92798403      15.20585885      52.80094891        0
H        4.16446182      16.05898047      52.07504042        0
H        2.76735372      12.32877246      54.82118747        0
H        2.38735273      13.84425387      54.11030274        0
H        1.05932958      12.03394380      53.06664188        0
H        2.53235251      11.18376620      52.57169406        0
H        2.12425562      12.74318889      51.84281041        0
H        3.96014652      10.67366328      54.47254036        0
H        5.55249175      10.20812644      54.61103028        0
C       26.87327340      10.44559557      10.09796454        0
C       25.98082182       9.38482193      10.73437501        0
C       26.44263004       7.93905720      10.66179735        0
C       25.58589685       6.89210426      11.07597525        0
C       25.97356979       5.53550871      10.88003228        0
C       27.27125467       5.23261305      10.39017847        0
C       28.17224247       6.28431574      10.13587732        0
C       27.73630020       7.61370072      10.23323788        0
C       29.59620455       6.02667919       9.71660738        0
N       27.74605852       3.90349867      10.36196304        0
C       25.00459713       4.41322451      11.21965465        0
C       25.16945864       3.92956117      12.65310443        0
N       24.27168783       7.20034460      11.50201212        0
H       26.39397803      11.42775282      10.16806542        0
H       27.05190145      10.23391511       9.03856910        0
H       27.83959321      10.51483667      10.60805790        0
H       25.00214530       9.45774617      10.24349743        0
H       25.84688090       9.64739035      11.79110656        0
H       28.43814828       8.40176745       9.97289829        0
H       29.61969377       5.55896757       8.72714468        0
H       30.09859074       5.37853087      10.44208143        0
H       30.17602365       6.95426385       9.66031795        0
H       27.02915720       3.20277236      10.22444434        0
H       28.51792260       3.76194490       9.71992414        0
H       23.96890240       4.73042052      11.05264943        0
H       25.12340768       3.57504535      10.52475974        0
H       24.45240908       3.13038341      12.86615519        0
H       24.99654303       4.73897765      13.37005466        0
H       26.17557269       3.53567965      12.83007637        0
H       23.87848622       6.50049965      12.12145280        0
H       24.18656751       8.12317699      11.91295455        0
C       38.66551352      55.17253885       8.45012189        0
C       38.56004478      55.90896742       9.78176679        0
C       39.20557168      55.26433510      10.99688579        0
C       38.99835193      55.80356270      12.28837297        0
C       39.49499521      55.11805592      13.43400002        0
C       40.30812583      53.96536412      13.27334890        0
C       40.64054485      53.53483096      11.97463206        0
C       40.05553278      54.15854711      10.86308890        0
C       41.58367408      52.38442973      11.73606099        0
N       40.96326590      53.37789725      14.37718495        0
C       39.17330007      55.63724792      14.82709912        0
C       40.22981115      56.60841981      15.33355473        0
N       38.13453466      56.91398876      12.44470129        0
H       38.10803266      55.71424829       7.67873547        0
H       38.24889638      54.16219575       8.51847588        0
H       39.70488684      55.09971301       8.11372471        0
H       37.49020996      56.03773665       9.98903089        0
H       38.99911394      56.90579155       9.65090868        0
H       40.28588434      53.76485913       9.87649652        0
H       41.14144212      51.45181162      12.10074809        0
H       42.53926686      52.56060487      12.24064548        0
H       41.80303725      52.25471153      10.67077935        0
H       40.47438593      53.47480611      15.25779911        0
H       41.23808105      52.41462928      14.22028679        0
H       38.18892748      56.11878399      14.84445578        0
H       39.05711327      54.80764341      15.53264584        0
H       39.96292145      56.96876034      16.33213391        0
H       40.32224807      57.47759205      14.67395825        0
H       41.21358487      56.13233363      15.39881139        0
H       38.33345294      57.46055917      13.27523698        0
H       38.09634646      57.51379125      11.62829612        0
C       42.95141681      18.05367222      16.01629736        0
C       42.53839821      16.80572868      16.79010701        0
C       42.97604629      15.45844259      16.24051226        0
C       42.48461620      14.25954300      16.80865116        0
C       42.79292853      13.00694055      16.20452697        0
C       43.69761142      12.95033422      15.11180873        0
C       44.30562104      14.13769225      14.66121817        0
C       43.90835515      15.37078533      15.19829399        0
C       45.35256486      14.13257423      13.57783720        0
N       44.16255270      11.71312737      14.61589677        0
C       42.17099318      11.72945985      16.74767768        0
C       43.04025931      11.07861369      17.81382188        0
N       41.53403552      14.32801419      17.85525180        0
H       42.52015844      18.94398937      16.48600219        0
H       42.59856469      18.01618151      14.98037984        0
H       44.03898221      18.17989028      16.01046096        0
H       41.44248655      16.81472756      16.84472490        0
H       42.92634095      16.89948399      17.81200440        0
H       44.35303502      16.27370907      14.78792204        0
H       44.91151370      13.81347449      12.62810484        0
H       46.17706129      13.46315170      13.84406988        0
H       45.78406904      15.12795050      13.42683318        0
H       43.50564314      10.94891077      14.70710567        0
H       44.52703814      11.76582369      13.67122803        0
H       41.17201601      11.92581601      17.15345655        0
H       41.97540526      11.01876960      15.93761352        0
H       42.55973681      10.16929680      18.18862410        0
H       43.20096464      11.75081724      18.66316791        0
H       44.02214237      10.80167908      17.41640511        0
H       41.52953804      13.50316252      18.44490994        0
H       41.61573568      15.16552448      18.42061927        0
C       11.14966976      18.01029097      44.57629705        0
C        9.69541059      18.25947584      44.96329316        0
C        8.71448351      18.58141334      43.84843517        0
C        7.39480654      18.99118896      44.15205040        0
C        6.52464622      19.41933901      43.10871728        0
C        6.93553865      19.31203269      41.75396958        0
C        8.19214538      18.74904559      41.45984089        0
C        9.07509304      18.43325681      42.50265920        0
C        8.64336976      18.50972625      40.04246490        0
N        6.03006452      19.55289930      40.69809093        0
C        5.14686755      19.96776056      43.44743979        0
C        4.08553734      18.87726251      43.46417191        0
N        7.01526872      19.15671704      45.50564426        0
H       11.75361660      17.85222766      45.47603881        0
H       11.57068541      18.86390423      44.03488638        0
H       11.25068947      17.11650370      43.95203518        0
H        9.69511131      19.09621365      45.67319188        0
H        9.33066940      17.37021746      45.49220461        0
H       10.06033219      18.05599351      42.24113897        0
H        8.77455144      19.46371189      39.52184498        0
H        7.91329924      17.89498679      39.50590811        0
H        9.59943151      17.97642396      40.00631835        0
H        5.31132005      20.23397495      40.90646227        0
H        6.48266105      19.76334825      39.81554168        0
H        5.16146964      20.48515929      44.41348997        0
H        4.86126927      20.75867042      42.74570307        0
H        3.11048717      19.30405038      43.71983786        0
H        4.31990042      18.10320851      44.20240415        0
H        3.99496729      18.39099430      42.48740812        0
H        6.01634087      19.06599890      45.65400392        0
H        7.52294361      18.55440016      46.14378166        0
C       56.22433315      35.87172443      60.93210687        0
C       55.11390748      36.90153482      60.74996895        0
C       55.09607892      37.69759744      59.45585286        0
C       54.20309937      38.78315606      59.29524287        0
C       54.28460137      39.60625752      58.13554599        0
C       55.17185695      39.26135370      57.08221439        0
C       55.93791739      38.08461885      57.18696706        0
C       55.92223653      37.34729183      58.37981749        0
C       56.81791890      37.60667549      56.06135640        0
N       55.13989837      39.94909375      55.84982965        0
C       53.40243647      40.83980156      58.01753158        0
C       52.08045517      40.53368411      57.32865907        0
N       53.36824990      39.15860673      60.37493172        0
H       56.15402890      35.41882487      61.92669740        0
H       57.21403259      36.33144454      60.84162086        0
H       56.14602092      35.06380433      60.19733081        0
H       55.19572860      37.60732326      61.58618330        0
H       54.15296417      36.38049806      60.84309554        0
H       56.56971593      36.47716587      58.45100635        0
H       57.63851388      38.31253299      55.89785900        0
H       56.23695748      37.49782150      55.13970822        0
H       57.25894188      36.62806517      56.27951357        0
H       54.86266654      40.91997976      55.91615558        0
H       55.99214661      39.85254946      55.30911004        0
H       53.21316921      41.27783282      59.00417951        0
H       53.92604857      41.64130013      57.48558270        0
H       51.46795381      41.43895463      57.26896668        0
H       51.51090354      39.77557896      57.87634511        0
H       52.23549942      40.16385334      56.30987858        0
H       52.53004640      39.64710412      60.08017347        0
H       53.12997553      38.38727946      60.98813505        0
C       45.39495321      22.88733732      62.18847751        0
C       46.33217366      21.72695248      61.86933229        0
C       46.66299908      20.75856506      62.99251988        0
C       47.65536386      19.76622961      62.81327689        0
C       48.05348508      18.95119787      63.91157475        0
C       47.36546407      19.04471579      65.14994871        0
C       46.27137858      19.92373596      65.26320570        0
C       45.96375274      20.79257312      64.20619222        0
C       45.43420535      19.99318970      66.51386515        0
N       47.61433428      18.12489593      66.19147399        0
C       49.19937522      17.96438861      63.74751234        0
C       48.71320397      16.59187721      63.30508973        0
N       48.37974900      19.72292510      61.59793506        0
H       45.29265349      23.53643140      61.31241663        0
H       45.77917356      23.49550571      63.01403261        0
H       44.39344877      22.53249266      62.45274570        0
H       47.27014974      22.16710007      61.50800498        0
H       45.89025884      21.15434368      61.04447207        0
H       45.15099659      21.50042431      64.34687179        0
H       46.03080096      20.37919582      67.34658076        0
H       45.04302782      19.00297570      66.76931985        0
H       44.57116768      20.65570330      66.38731997        0
H       48.55938548      17.76429346      66.21831313        0
H       47.32890816      18.45946080      67.10505149        0
H       49.93902334      18.34330764      63.03301346        0
H       49.77246826      17.87793477      64.67682892        0
H       49.56219028      15.91088596      63.18800449        0
H       48.18721811      16.64453451      62.34611185        0
H       48.02825571      16.15368029      64.03827221        0
H       48.76292984      18.80655314      61.39414081        0
H       47.85567499      20.07103840      60.80301222        0
C       19.15708480      17.10103050       5.46288954        0
C       18.04377287      18.03545134       5.92562388        0
C       18.25612306      19.52903255       5.74426076        0
C       17.34551899      20.45505308       6.30544858        0
C       17.62275351      21.85100148       6.24624945        0
C       18.74368586      22.32076365       5.51240836        0
C       19.54976394      21.39526852       4.82231884        0
C       19.32305338      20.02035890       4.98048026        0
C       20.68918299      21.83627474       3.94080331        0
N       18.93637633      23.70022097       5.28273962        0
C       16.70263124      22.83742572       6.94918288        0
C       15.59152221      23.33395048       6.03551573        0
N       16.26752538      19.97804908       7.08906954        0
H       18.90080438      16.06490219       5.70789872        0
H       20.10670511      17.33729689       5.95424964        0
H       19.30157393      17.15583925       4.37896959        0
H       17.88753792      17.83801517       6.99365762        0
H       17.12592494      17.75451536       5.39440448        0
H       19.99928566      19.33053372       4.48221554        0
H       21.47289302      22.30613029       4.54361064        0
H       20.33617001      22.54174811       3.18153400        0
H       21.13984278      20.99168895       3.40849458        0
H       18.58253391      24.30271443       6.01463677        0
H       19.89190969      23.94242874       5.04542768        0
H       16.26860769      22.38940011       7.85032894        0
H       17.27229872      23.68606192       7.34267337        0
H       14.94424260      24.03297151       6.57462100        0
H       14.97058342      22.50676656       5.67596843        0
H       15.99449751      23.85415849       5.16046045        0
H       15.48267373      20.61922808       7.12060660        0
H       15.95519128      19.05070296       6.82408775        0
C       48.25266847      43.04983386      19.29185455        0
C       46.82905927      42.73813449      18.84140016        0
C       46.02236620      41.76093452      19.67990867        0
C       44.76497614      41.29685859      19.22686414        0
C       44.07776394      40.28129460      19.95171215        0
C       44.59018236      39.82797744      21.19574570        0
C       45.75968870      40.41746554      21.71274215        0
C       46.47788321      41.33772299      20.93549570        0
C       46.29597258      40.05742895      23.07384653        0
N       43.83883027      38.96246405      22.01984307        0
C       42.78270952      39.70216849      19.40287684        0
C       41.56046098      40.45615581      19.90636409        0
N       44.29298080      41.70503687      17.95632262        0
H       48.73599908      43.71487640      18.56840380        0
H       48.85627828      42.13926995      19.36644569        0
H       48.26396643      43.55681196      20.26222001        0
H       46.89935864      42.33903274      17.82166380        0
H       46.27605433      43.68445793      18.79426851        0
H       47.40820635      41.73003093      21.33800027        0
H       46.62940749      39.01481283      23.08457577        0
H       45.52849717      40.20628903      23.84041220        0
H       47.15108968      40.68337778      23.35085698        0
H       43.22488056      38.33227734      21.52003638        0
H       44.40010738      38.45874084      22.69752772        0
H       42.79151477      39.70084090      18.30693509        0
H       42.69705166      38.63919526      19.65245617        0
H       40.64879018      40.02010633      19.48570628        0
H       41.59515098      41.51166626      19.61693917        0
H       41.48313753      40.41124648      20.99757050        0
H       43.28323984      41.66403771      17.87362154        0
H       44.63352071      42.61691568      17.67304120        0
C       51.90654029      41.70620292      25.58607585        0
C       50.75078360      41.76125364      26.58001986        0
C       50.70562586      42.93460497      27.54437325        0
C       49.76431737      42.95771482      28.60033244        0
C       49.81611343      43.99285543      29.57748980        0
C       50.72633309      45.07108424      29.42060966        0
C       51.54552609      45.11751012      28.27636575        0
C       51.55523714      44.03690364      27.38250643        0
C       52.45523384      46.28560854      27.99742171        0
N       50.67163997      46.19828229      30.26867397        0
C       48.87840039      43.95340704      30.77453253        0
C       47.57730176      44.69581860      30.50647428        0
N       48.90482616      41.84848206      28.78618833        0
H       51.84993681      40.78387553      24.99838607        0
H       52.87442060      41.71936938      26.09800321        0
H       51.87142787      42.54547323      24.88382517        0
H       50.79339404      40.83541001      27.16745870        0
H       49.81446155      41.75345148      26.00835206        0
H       52.24196183      44.07632486      26.54091760        0
H       53.24328895      46.33980277      28.75529667        0
H       51.88689502      47.22141560      27.98988039        0
H       52.93967904      46.19712318      27.01902753        0
H       50.34903037      46.00377397      31.20780432        0
H       51.53148825      46.73530820      30.28569369        0
H       48.66155843      42.91887522      31.06417211        0
H       49.36811385      44.36359547      31.66417593        0
H       46.92379426      44.63972584      31.38284027        0
H       47.03956217      44.26474791      29.65554145        0
H       47.75702538      45.75333378      30.28718393        0
H       48.04702811      42.08528049      29.27219885        0
H       48.69811966      41.34974919      27.92812265        0
C       47.92467828      53.96547986      47.84184500        0
C       46.81217197      53.30306234      48.64823297        0
C       45.39869386      53.82924366      48.46388853        0
C       44.35224706      53.37989212      49.30333945        0
C       43.06148613      53.97550998      49.21272465        0
C       42.78943651      54.92669742      48.19443196        0
C       43.79703273      55.24329594      47.26328113        0
C       45.08996731      54.72755272      47.43392187        0
C       43.54108397      56.16284323      46.09762471        0
N       41.47642578      55.39205900      47.96591216        0
C       41.96980427      53.57249855      50.19230911        0
C       41.13185839      52.41448017      49.67007550        0
N       44.64670232      52.48055904      50.35603169        0
H       48.89273780      53.53304777      48.11595135        0
H       47.97106071      55.04230091      48.03508162        0
H       47.78797529      53.80912576      46.76684303        0
H       47.08224537      53.40775161      49.70662182        0
H       46.81204832      52.23308291      48.40593580        0
H       45.86031963      55.03783896      46.73271124        0
H       43.33511411      57.17690157      46.45484232        0
H       42.69474541      55.80292908      45.50350890        0
H       44.40469649      56.21539987      45.42592300        0
H       40.89096753      55.42340173      48.79061364        0
H       41.43949936      56.27147838      47.46263931        0
H       42.39917368      53.30945893      51.16576670        0
H       41.32519565      54.42627158      50.42702287        0
H       40.36379652      52.14478586      50.40191000        0
H       41.74745631      51.52824595      49.48379455        0
H       40.62831982      52.67449610      48.73328960        0
H       43.84746176      51.92644572      50.64285947        0
H       45.44131147      51.88092037      50.16428044        0
C       18.59617311      43.87717702      24.03902969        0
C       17.61693137      43.63095226      25.18235284        0
C       16.15119138      43.94617959      24.93535482        0
C       15.22076966      43.90573034      26.00040170        0
C       13.87803737      44.33169550      25.78907471        0
C       13.43965721      44.67259924      24.48243932        0
C       14.33624692      44.55116394      23.40359411        0
C       15.68028441      44.23350996      23.64741444        0
C       13.90490445      44.79494096      21.98079816        0
N       12.07563569      44.91762891      24.21376552        0
C       12.90974023      44.39662887      26.96038062        0
C       12.14154477      43.09530234      27.14013817        0
N       15.67942782      43.62769133      27.31036042        0
H       19.61845336      43.66817202      24.37149178        0
H       18.55965155      44.91742342      23.69904602        0
H       18.38845362      43.22335774      23.18572054        0
H       17.96040713      44.23710259      26.03011026        0
H       17.69480957      42.57537058      25.47087703        0
H       16.36041156      44.20572250      22.80002343        0
H       13.63677160      45.84724846      21.84260978        0
H       13.04992530      44.16063277      21.72493781        0
H       14.70344211      44.55857105      21.26929352        0
H       11.55783264      45.31216827      24.98842348        0
H       11.91850551      45.45001095      23.36529334        0
H       13.43800824      44.64594188      27.88771203        0
H       12.21097878      45.23133078      26.83978060        0
H       11.46245186      43.17341193      27.99510455        0
H       12.81835296      42.25384716      27.32167697        0
H       11.54287422      42.85761685      26.25479847        0
H       14.95957839      43.24311313      27.91203610        0
H       16.50738388      43.04311143      27.33258393        0
C       15.89172855      57.43793573      59.45263764        0
C       15.73655290      56.01496511      59.97970876        0
C       16.00002977      54.87254696      59.01315265        0
C       15.70841563      53.53884750      59.38443760        0
C       15.83153203      52.49058554      58.42786839        0
C       16.37014698      52.76302354      57.14281585        0
C       16.80813313      54.06741161      56.84404077        0
C       16.58027045      55.10531286      57.75926137        0
C       17.48497441      54.39892816      55.53950463        0
N       16.67489966      51.71693228      56.24526433        0
C       15.40844114      51.07614388      58.79409523        0
C       16.56025082      50.26598697      59.37104238        0
N       15.11217076      53.28500643      60.64289762        0
H       15.61373461      58.15666493      60.23072423        0
H       15.24667264      57.61521473      58.58574070        0
H       16.92731231      57.64846769      59.16627052        0
H       14.70658917      55.92341870      60.34696947        0
H       16.41054088      55.89828652      60.83743263        0
H       16.87629245      56.11162653      57.47444498        0
H       16.78334324      54.27614173      54.70825284        0
H       18.35597377      53.75389807      55.38427247        0
H       17.84501272      55.43324675      55.52135362        0
H       16.08027632      50.90258501      56.32975023        0
H       16.74116593      52.01759926      55.27922411        0
H       14.57428131      51.09194232      59.50479587        0
H       14.98544148      50.56087244      57.92512697        0
H       16.21946542      49.25891755      59.63164225        0
H       16.96191612      50.73200682      60.27689169        0
H       17.38114215      50.16878350      58.65311750        0
H       15.28919685      52.34765821      60.98660870        0
H       15.35270457      53.97119717      61.34931429        0
C       18.93984001      40.64483465      56.15177717        0
C       17.69409334      40.41142721      57.00052038        0
C       16.47998831      41.28252173      56.72499664        0
C       15.35695566      41.23801411      57.58433494        0
C       14.28075353      42.15221278      57.39707789        0
C       14.27425696      43.01900549      56.27265948        0
C       15.32246822      42.93707515      55.33614081        0
C       16.42351894      42.10763315      55.59402144        0
C       15.32148158      43.75242960      54.06924380        0
N       13.13949840      43.79930254      55.96243478        0
C       13.12822486      42.18038586      58.38937681        0
C       11.99828201      41.24677271      57.98012941        0
N       15.39961409      40.41845276      58.73766244        0
H       19.75261888      39.99631882      56.49541760        0
H       19.28400279      41.68180316      56.22446538        0
H       18.75641962      40.41077168      55.09805281        0
H       17.99123596      40.55749589      58.04668321        0
H       17.39587318      39.36263508      56.87942662        0
H       17.24389429      42.11133523      54.88100869        0
H       15.40712855      44.81780195      54.30586307        0
H       14.40376420      43.57466059      53.49916160        0
H       16.16038507      43.48778821      53.41657402        0
H       12.59234557      44.08473031      56.76432693        0
H       13.34328240      44.59144938      55.36326782        0
H       13.47597142      41.92186402      59.39605769        0
H       12.74701994      43.19981456      58.51179874        0
H       11.19159191      41.28467138      58.71908177        0
H       12.34302265      40.20988640      57.90876309        0
H       11.57872887      41.52704897      57.00845684        0
H       14.48061160      40.14276910      59.06558035        0
H       15.99563922      39.60509326      58.63307218        0
C       23.26165326      56.03944519      16.19847290        0
C       24.56799091      55.90163488      15.42308971        0
C       24.50215064      55.28866394      14.03431266        0
C       25.69020878      54.97393498      13.33352090        0
C       25.62144206      54.27822744      12.09243364        0
C       24.36024260      54.01607714      11.49549000        0
C       23.19114017      54.48077049      12.12777652        0
C       23.27318089      55.06818184      13.39860554        0
C       21.83204224      54.32886130      11.49563073        0
N       24.26928190      53.49723050      10.18579379        0
C       26.90116071      53.83940225      11.39707342        0
C       27.41354018      54.89200847      10.42476934        0
N       26.94095792      55.17977265      13.96353860        0
H       23.46171179      56.43585067      17.19952749        0
H       22.76193866      55.07199278      16.31404297        0
H       22.57275320      56.73140910      15.70312836        0
H       25.23840905      55.28791651      16.03788704        0
H       25.01375944      56.90012402      15.33435547        0
H       22.34730609      55.36241139      13.88604931        0
H       21.56270900      53.26989371      11.42937673        0
H       21.82197092      54.77444069      10.49555158        0
H       21.05505127      54.83418697      12.07932841        0
H       25.03767241      52.89658964       9.91619623        0
H       23.37838231      53.05685237       9.98481968        0
H       27.68019129      53.60239642      12.13063133        0
H       26.75226088      52.88777081      10.87576196        0
H       28.33819341      54.54853290       9.95013607        0
H       27.62630644      55.83718759      10.93510200        0
H       26.68436756      55.09601616       9.63393727        0
H       27.70290959      55.30549643      13.30648427        0
H       26.93210166      55.93302259      14.64197421        0
C       30.28732903       8.19111799      26.23857972        0
C       28.89560764       8.00984557      26.83605836        0
C       27.71715296       8.57776061      26.06308547        0
C       26.42532586       8.59758066      26.63965765        0
C       25.35469482       9.25144275      25.96493622        0
C       25.55130411       9.76888246      24.65753824        0
C       26.80055496       9.59654985      24.03127916        0
C       27.87064824       9.04619313      24.75155480        0
C       27.04185173      10.02726579      22.60787074        0
N       24.46568595      10.25318766      23.89618318        0
C       23.99555813       9.37193260      26.63724780        0
C       23.08408264       8.20137432      26.29828837        0
N       26.25253173       8.13838558      27.96741776        0
H       31.04266076       7.79203391      26.92376356        0
H       30.51397627       9.24873746      26.06797089        0
H       30.38896107       7.65464797      25.28956212        0
H       28.91310026       8.47797797      27.82834488        0
H       28.72621988       6.93485165      26.97483796        0
H       28.83771996       8.98118659      24.25965740        0
H       26.97618025      11.11697644      22.52687508        0
H       26.31081248       9.56366432      21.93745593        0
H       28.03471460       9.72646214      22.25642734        0
H       23.71611914      10.65873131      24.44167397        0
H       24.74260464      10.87435034      23.14418681        0
H       24.10588417       9.45258102      27.72467211        0
H       23.51103133      10.31581378      26.36547342        0
H       22.12032849       8.31504232      26.80474007        0
H       23.52233136       7.24920623      26.61512663        0
H       22.89397295       8.13995757      25.22180637        0
H       25.30788480       7.82534433      28.16169742        0
H       26.92266120       7.42791788      28.23926496        0
C        7.37466466       5.53880283      20.80486268        0
C        8.02994130       6.65318075      19.99523116        0
C        9.46846834       6.44912866      19.55051472        0
C       10.18911582       7.50790240      18.94942326        0
C       11.57465545       7.35078926      18.65850948        0
C       12.20108068       6.09126046      18.85051782        0
C       11.42950661       5.00128047      19.29677305        0
C       10.09509362       5.20249820      19.67840446        0
C       12.00813482       3.61565920      19.41955324        0
N       13.51790201       5.85751456      18.39871664        0
C       12.37445531       8.52686268      18.11911657        0
C       12.37660449       8.56734921      16.59785262        0
N        9.57641885       8.77749217      18.82132523        0
H        6.36732699       5.84153824      21.10964638        0
H        7.94660063       5.31447025      21.71128389        0
H        7.27750835       4.62029684      20.21692479        0
H        7.98630184       7.56031274      20.61109933        0
H        7.41764685       6.82448887      19.10118812        0
H        9.54368941       4.35384943      20.07484523        0
H       12.77427288       3.59435216      20.20116747        0
H       12.44461492       3.29629178      18.46756043        0
H       11.24208011       2.87876506      19.68397562        0
H       14.11680759       6.67307500      18.40575442        0
H       13.97005613       5.07293137      18.85479934        0
H       11.98799192       9.47328446      18.51421081        0
H       13.40273921       8.50139216      18.49531157        0
H       12.95183721       9.42901087      16.24446574        0
H       11.36030826       8.65276411      16.19920648        0
H       12.82722425       7.66427692      16.17343598        0
H        9.97040376       9.33711623      18.07319822        0
H        8.56743761       8.73182556      18.73408892        0
C       12.77878539      16.55162445      74.58077267        0
C       11.37992053      16.04469422      74.24472553        0
C       10.22495449      17.02317736      74.37661257        0
C        8.88899828      16.57534170      74.24890282        0
C        7.81076011      17.46989306      74.50622700        0
C        8.07316633      18.84137304      74.76288673        0
C        9.40208847      19.30516089      74.72555814        0
C       10.45491119      18.39073676      74.57662198        0
C        9.73880103      20.76506986      74.88405839        0
N        7.02262519      19.78141630      74.83679089        0
C        6.37845559      16.95838701      74.48095800        0
C        5.74925064      17.08777106      73.10137521        0
N        8.63646513      15.19580570      74.05714176        0
H       13.50140310      15.73243708      74.50314071        0
H       12.82622291      16.94571912      75.60129918        0
H       13.09751069      17.33715554      73.88786672        0
H       11.18439652      15.19147438      74.90644505        0
H       11.39553997      15.67266755      73.21277781        0
H       11.47194015      18.77264207      74.61150772        0
H        9.48403635      21.10386493      75.89334288        0
H        9.19715514      21.36613116      74.14639602        0
H       10.80661000      20.95362463      74.72912909        0
H        6.14792054      19.40939554      75.18373267        0
H        7.27352599      20.63250754      75.32742116        0
H        6.33279993      15.91472496      74.81239837        0
H        5.76665804      17.48228708      75.22309794        0
H        4.72462530      16.70287766      73.11673027        0
H        6.31174503      16.52207631      72.35126722        0
H        5.71221169      18.13188419      72.77398692        0
H        7.74889491      15.01193974      73.60270845        0
H        9.38606825      14.71119833      73.57652796        0
C       50.83767500      13.39564561      45.64979931        0
C       52.06597088      14.29731337      45.57899450        0
C       53.26915577      13.91732243      46.42558946        0
C       54.37079211      14.79761911      46.54013504        0
C       55.43306260      14.49514494      47.43964948        0
C       55.45078185      13.25085318      48.12310586        0
C       54.42838137      12.31546864      47.87354690        0
C       53.33781314      12.67408024      47.06803599        0
C       54.44521003      10.93825634      48.48414903        0
N       56.57733563      12.84885899      48.87281053        0
C       56.55938291      15.49620777      47.64713193        0
C       57.71756806      15.26077262      46.68845304        0
N       54.31526421      16.06238643      45.90693275        0
H       50.02948134      13.81736238      45.04296407        0
H       50.47131675      13.29989235      46.67724674        0
H       51.05224440      12.39493357      45.26082767        0
H       51.73967151      15.30164460      45.87721245        0
H       52.38786664      14.34607111      44.53134488        0
H       52.53579147      11.95124523      46.94278669        0
H       54.33253244      11.00570868      49.57093157        0
H       55.38037074      10.42266872      48.24239589        0
H       53.62846059      10.31602980      48.10266972        0
H       57.09830495      13.60888804      49.29092899        0
H       56.37309774      12.13031392      49.55837996        0
H       56.19151558      16.52286465      47.53842638        0
H       56.91711029      15.46817099      48.68191900        0
H       58.50443262      16.00251106      46.85846498        0
H       57.39534271      15.34273349      45.64512868        0
H       58.15589013      14.26691167      46.82571692        0
H       55.23097297      16.44896243      45.70659881        0
H       53.73829577      16.07153393      45.07340861        0
C       46.70618273      55.97180513      65.19927077        0
C       45.79819457      55.18447166      66.13862817        0
C       44.40772373      54.82788086      65.64042753        0
C       43.45821186      54.25340011      66.51794940        0
C       42.11850659      54.04649480      66.08043893        0
C       41.76828259      54.29455392      64.72711029        0
C       42.76547720      54.71199495      63.82496144        0
C       44.05124950      55.01174814      64.29795910        0
C       42.48350817      54.89013836      62.35574727        0
N       40.50243244      53.92424192      64.22384867        0
C       41.07141903      53.53638528      67.05878913        0
C       40.97883319      52.01740145      67.05684651        0
N       43.79645252      54.06977874      67.88013195        0
H       47.64750531      56.21238045      65.70454926        0
H       46.24068308      56.91352563      64.89022728        0
H       46.95329131      55.39368823      64.30289934        0
H       45.69260968      55.78241439      67.05263189        0
H       46.31446182      54.25357965      66.40409399        0
H       44.78204560      55.38854912      63.58706200        0
H       41.78062173      55.71544708      62.20356809        0
H       42.06891241      53.97042608      61.93025884        0
H       43.39476265      55.12085835      61.79347018        0
H       39.75364142      53.95347628      64.90379985        0
H       40.24189649      54.41824409      63.37761675        0
H       41.28138132      53.89329830      68.07352877        0
H       40.09096741      53.97241051      66.83939031        0
H       40.22445271      51.68476423      67.77691483        0
H       41.93434009      51.55872585      67.33197511        0
H       40.69584249      51.63429013      66.07101225        0
H       43.25847662      53.33727125      68.32970056        0
H       44.78791150      53.92442781      68.03382311        0
C        8.81886106      40.73271118      31.08054757        0
C        7.31496605      40.93387922      30.92383110        0
C        6.79575718      42.36111187      30.87693602        0
C        5.40487956      42.61839348      30.90712184        0
C        4.93074376      43.95851622      30.99823570        0
C        5.84664668      45.04101349      30.92745386        0
C        7.21493020      44.77150322      30.73331202        0
C        7.67337210      43.44627690      30.75319651        0
C        8.22298781      45.87505509      30.54403706        0
N        5.39140365      46.37359482      30.82865791        0
C        3.44094661      44.22747085      31.14636088        0
C        2.75500925      44.40407328      29.79944243        0
N        4.50318532      41.53567194      31.04249686        0
H        9.04621803      39.66451882      31.16144831        0
H        9.19577019      41.22557151      31.98280223        0
H        9.36724904      41.12038692      30.21582698        0
H        6.83687328      40.42213363      31.76859747        0
H        7.00160410      40.42657091      30.00295843        0
H        8.74256762      43.27421903      30.66027921        0
H        8.30966951      46.46838260      31.45989244        0
H        7.93041340      46.52350229      29.71174073        0
H        9.21686614      45.47970707      30.30807563        0
H        4.50610962      46.55139125      31.28529692        0
H        6.08452735      47.06057445      31.10372898        0
H        2.95446454      43.42096759      31.70676724        0
H        3.26655827      45.10751484      31.77457302        0
H        1.68512446      44.58626053      29.94223651        0
H        2.86560520      43.51145058      29.17489000        0
H        3.17050587      45.25259046      29.24617182        0
H        3.57918255      41.73773138      30.67713664        0
H        4.85396963      40.66727797      30.65444914        0
C       55.79750926      32.74107367       6.34699907        0
C       55.96416233      31.25974034       6.67042937        0
C       55.01964166      30.65087645       7.69313924        0
C       55.22828912      29.33365886       8.16542055        0
C       54.42057180      28.81932912       9.21997880        0
C       53.32397762      29.57780839       9.70770717        0
C       53.03010678      30.82034222       9.11417851        0
C       53.89910099      31.35559606       8.15233573        0
C       51.82005636      31.62469188       9.51246420        0
N       52.40029720      29.01887379      10.61720507        0
C       54.71992872      27.44728806       9.80449737        0
C       53.95143512      26.34275981       9.09363683        0
N       56.36074257      28.60996547       7.72103119        0
H       56.57664285      33.06028184       5.64676481        0
H       55.88187733      33.35834825       7.24749305        0
H       54.83005910      32.94185712       5.87531089        0
H       56.99210393      31.12758901       7.03092702        0
H       55.86169353      30.69713309       5.73419374        0
H       53.67692322      32.34317577       7.75643175        0
H       51.91775915      31.96608926      10.54795651        0
H       50.90945568      31.02601044       9.40669244        0
H       51.69635990      32.51044313       8.88007516        0
H       52.79075831      28.32438229      11.24098222        0
H       51.86983414      29.71148659      11.13385004        0
H       55.79440044      27.23468962       9.76602600        0
H       54.50031473      27.42671690      10.87729079        0
H       54.19685840      25.37031467       9.53221824        0
H       54.20008422      26.30546345       8.02787180        0
H       52.86963077      26.48786254       9.17949577        0
H       56.24008311      27.60489307       7.77906544        0
H       56.67059523      28.87518703       6.79292149        0
C       21.28121290      53.64456250      26.80354398        0
C       19.86999932      53.26727693      27.24270304        0
C       18.70831028      53.97794722      26.56876215        0
C       17.38801526      53.80343595      27.04626864        0
C       16.32439698      54.57492653      26.49621965        0
C       16.56526044      55.42228910      25.38282394        0
C       17.85321210      55.46124408      24.81520638        0
C       18.90879122      54.77768010      25.43591739        0
C       18.14910383      56.25674928      23.57043675        0
N       15.49962891      56.05235381      24.70442305        0
C       14.92691575      54.47027126      27.08771496        0
C       14.09324786      53.39933376      26.39925400        0
N       17.16696477      53.00773124      28.19590143        0
H       22.01734390      53.10563193      27.40929641        0
H       21.46469168      54.71694477      26.92750803        0
H       21.45967497      53.37842927      25.75660179        0
H       19.81137041      53.46014004      28.32133779        0
H       19.74618469      52.18835585      27.08725799        0
H       19.90285782      54.87567429      25.00737879        0
H       18.03466197      57.32695044      23.77022380        0
H       17.47859329      55.96041558      22.75717007        0
H       19.17289556      56.09142822      23.21788684        0
H       14.70296994      56.27609453      25.28678961        0
H       15.78574981      56.85730246      24.15832958        0
H       14.97472359      54.26756215      28.16372195        0
H       14.41207855      55.43572290      27.03887851        0
H       13.09933056      53.34458895      26.85462988        0
H       14.55991882      52.41257255      26.48639191        0
H       13.96433976      53.61508272      25.33362635        0
H       16.22970139      52.62356553      28.24119261        0
H       17.85549816      52.27360064      28.31719769        0
