6888
Lattice="60.0 0.0 0.0 0.0 60.0 0.0 0.0 0.0 80.0" Properties=species:S:1:pos:R:3:spacegroup_kinds:I:1 spacegroup="P 21" unit_cell=conventional occupancy="_JSON {\"0\": {\"C\": 1}, \"1\": {\"H\": 1}, \"2\": {\"C\": 1}, \"3\": {\"H\": 1}, \"4\": {\"C\": 1}, \"5\": {\"H\": 1}, \"6\": {\"C\": 1}, \"7\": {\"H\": 1}, \"8\": {\"C\": 1}, \"9\": {\"H\": 1}, \"10\": {\"C\": 1}, \"11\": {\"H\": 1}, \"12\": {\"H\": 1}, \"13\": {\"O\": 1}, \"14\": {\"O\": 1}, \"15\": {\"O\": 1}, \"16\": {\"O\": 1}, \"17\": {\"O\": 1}, \"18\": {\"C\": 1}, \"19\": {\"H\": 1}, \"20\": {\"C\": 1}, \"21\": {\"H\": 1}, \"22\": {\"C\": 1}, \"23\": {\"H\": 1}, \"24\": {\"C\": 1}, \"25\": {\"H\": 1}, \"26\": {\"C\": 1}, \"27\": {\"H\": 1}, \"28\": {\"C\": 1}, \"29\": {\"H\": 1}, \"30\": {\"H\": 1}, \"31\": {\"O\": 1}, \"32\": {\"O\": 1}, \"33\": {\"O\": 1}, \"34\": {\"O\": 1}, \"35\": {\"O\": 1}}" pbc="T T T"
C       22.36426658      21.65780628       9.14527827        0
C       30.78722334      14.19472420      14.33527827        0
H       23.30933601      21.84682757       9.31654827        1
H       29.84215391      14.00570291      14.50654827        1
C       29.96974615      20.50086561      18.54021627        2
C       23.18174377      15.35166487      13.35021627        2
H       29.02982896      20.22629589      18.50907627        3
H       24.12166096      15.62623459      13.31907627        3
C       22.65552212      20.88379668      17.15760027        4
C       30.49596780      14.96873380      11.96760027        4
H       23.63735812      20.92208978      17.16590427        5
H       29.51413180      14.93044070      11.97590427        5
C       30.85293722      14.09695456      16.74032427        6
C       22.29855270      21.75557591      11.55032427        6
H       29.89465090      13.99592594      16.55867427        7
H       23.25683902      21.85660454      11.36867427        7
C       23.20513102      15.14797813      17.79700827        8
C       29.94635890      20.70455235      12.60700827        8
H       24.15418601      15.33618468      17.94440427        9
H       28.99730391      20.51634580      12.75440427        9
C       30.27122064      16.45157326      17.48768427       10
C       22.88026928      19.40095722      12.29768427       10
H       29.35719365      16.26336671      17.23026027       11
H       23.79429627      19.58916377      12.04026027       11
H       30.25645942      17.00723068      18.28175427       12
H       22.89503050      18.84529980      13.09175427       12
O       22.98456783      19.44169457      19.07271027       13
O       30.16692209      16.41083591      13.88271027       13
O       30.03399487      19.87351045      16.21198227       14
O       23.11749505      15.97902002      11.02198227       14
O       23.68597379      14.55321286      15.52171227       15
O       29.46551613      21.29931762      10.33171227       15
O       30.40697242      14.65912996      19.02081027       16
O       22.74451750      21.19340052      13.83081027       16
O       23.14811948      17.13596070      16.43930427       17
O       30.00337044      18.71656978      11.24930427       17
C       26.87471401      17.55962911      11.85445827       18
C       26.27677591      18.29290137      17.04445827       18
H       27.83920457      17.61340241      12.01742427       19
H       25.31228535      18.23912807      17.20742427       19
C       26.55159122      16.44179629      10.86939627       20
C       26.59989870      19.41073419      16.05939627       20
H       25.57424910      16.34402666      10.82580027       21
H       27.57724082      19.50850382      16.01580027       21
C       27.05418708      16.81006191       9.48989427       22
C       26.09730284      19.04246856      14.67989427       22
H       28.02813495      16.91027579       9.51895827       23
H       25.12335497      18.94225469      14.70895827       23
C       26.41131022      18.13809945       9.08507427       24
C       26.74017970      17.71443103      14.27507427       24
H       25.44262405      18.03951507       8.99580627       25
H       27.70886587      17.81301541      14.18580627       25
C       26.74764285      19.20867694      10.13656827       26
C       26.40384707      16.64385354      15.32656827       26
H       27.70447830      19.41725216      10.11788427       27
H       25.44701162      16.43527832      15.30788427       27
C       25.90743364      20.49271814       9.86357427       28
C       27.24405628      15.35981234      15.05357427       28
H       25.01841958      20.24259082       9.57501027       29
H       28.13307034      15.60993965      14.76501027       29
H       25.82611127      21.00437922      10.68463227       30
H       27.32537865      14.84815125      15.87463227       30
O       27.10615059      15.20501042      11.31158427       31
O       26.04533933      20.64752006      16.50158427       31
O       26.71654477      15.75089088      18.99174627       32
O       26.43494515      20.10163960      13.80174627       32
O       26.98568483      18.62694762      18.23919627       33
O       26.16580509      17.22558286      13.04919627       33
O       26.35888754      18.79804448      11.43510627       34
O       26.79260238      17.05448600      16.62510627       34
O       26.51538013      21.29931762       8.87228427       35
O       26.63610979      14.55321286      14.06228427       35
C       22.36426658      21.65780628      19.52527827        0
C       30.78722334      14.19472420      24.71527827        0
H       23.30933601      21.84682757      19.69654827        1
H       29.84215391      14.00570291      24.88654827        1
C       29.96974615      20.50086561      28.92021627        2
C       23.18174377      15.35166487      23.73021627        2
H       29.02982896      20.22629589      28.88907627        3
H       24.12166096      15.62623459      23.69907627        3
C       22.65552212      20.88379668      27.53760027        4
C       30.49596780      14.96873380      22.34760027        4
H       23.63735812      20.92208978      27.54590427        5
H       29.51413180      14.93044070      22.35590427        5
C       30.85293722      14.09695456      27.12032427        6
C       22.29855270      21.75557591      21.93032427        6
H       29.89465090      13.99592594      26.93867427        7
H       23.25683902      21.85660454      21.74867427        7
C       23.20513102      15.14797813      28.17700827        8
C       29.94635890      20.70455235      22.98700827        8
H       24.15418601      15.33618468      28.32440427        9
H       28.99730391      20.51634580      23.13440427        9
C       30.27122064      16.45157326      27.86768427       10
C       22.88026928      19.40095722      22.67768427       10
H       29.35719365      16.26336671      27.61026027       11
H       23.79429627      19.58916377      22.42026027       11
H       30.25645942      17.00723068      28.66175427       12
H       22.89503050      18.84529980      23.47175427       12
O       22.98456783      19.44169457      29.45271027       13
O       30.16692209      16.41083591      24.26271027       13
O       30.03399487      19.87351045      26.59198227       14
O       23.11749505      15.97902002      21.40198227       14
O       23.68597379      14.55321286      25.90171227       15
O       29.46551613      21.29931762      20.71171227       15
O       30.40697242      14.65912996      29.40081027       16
O       22.74451750      21.19340052      24.21081027       16
O       23.14811948      17.13596070      26.81930427       17
O       30.00337044      18.71656978      21.62930427       17
C       26.87471401      17.55962911      22.23445827       18
C       26.27677591      18.29290137      27.42445827       18
H       27.83920457      17.61340241      22.39742427       19
H       25.31228535      18.23912807      27.58742427       19
C       26.55159122      16.44179629      21.24939627       20
C       26.59989870      19.41073419      26.43939627       20
H       25.57424910      16.34402666      21.20580027       21
H       27.57724082      19.50850382      26.39580027       21
C       27.05418708      16.81006191      19.86989427       22
C       26.09730284      19.04246856      25.05989427       22
H       28.02813495      16.91027579      19.89895827       23
H       25.12335497      18.94225469      25.08895827       23
C       26.41131022      18.13809945      19.46507427       24
C       26.74017970      17.71443103      24.65507427       24
H       25.44262405      18.03951507      19.37580627       25
H       27.70886587      17.81301541      24.56580627       25
C       26.74764285      19.20867694      20.51656827       26
C       26.40384707      16.64385354      25.70656827       26
H       27.70447830      19.41725216      20.49788427       27
H       25.44701162      16.43527832      25.68788427       27
C       25.90743364      20.49271814      20.24357427       28
C       27.24405628      15.35981234      25.43357427       28
H       25.01841958      20.24259082      19.95501027       29
H       28.13307034      15.60993965      25.14501027       29
H       25.82611127      21.00437922      21.06463227       30
H       27.32537865      14.84815125      26.25463227       30
O       27.10615059      15.20501042      21.69158427       31
O       26.04533933      20.64752006      26.88158427       31
O       26.71654477      15.75089088      29.37174627       32
O       26.43494515      20.10163960      24.18174627       32
O       26.98568483      18.62694762      28.61919627       33
O       26.16580509      17.22558286      23.42919627       33
O       26.35888754      18.79804448      21.81510627       34
O       26.79260238      17.05448600      27.00510627       34
O       26.51538013      21.29931762      19.25228427       35
O       26.63610979      14.55321286      24.44228427       35
C       22.36426658      21.65780628      29.90527827        0
C       30.78722334      14.19472420      35.09527827        0
H       23.30933601      21.84682757      30.07654827        1
H       29.84215391      14.00570291      35.26654827        1
C       29.96974615      20.50086561      39.30021627        2
C       23.18174377      15.35166487      34.11021627        2
H       29.02982896      20.22629589      39.26907627        3
H       24.12166096      15.62623459      34.07907627        3
C       22.65552212      20.88379668      37.91760027        4
C       30.49596780      14.96873380      32.72760027        4
H       23.63735812      20.92208978      37.92590427        5
H       29.51413180      14.93044070      32.73590427        5
C       30.85293722      14.09695456      37.50032427        6
C       22.29855270      21.75557591      32.31032427        6
H       29.89465090      13.99592594      37.31867427        7
H       23.25683902      21.85660454      32.12867427        7
C       23.20513102      15.14797813      38.55700827        8
C       29.94635890      20.70455235      33.36700827        8
H       24.15418601      15.33618468      38.70440427        9
H       28.99730391      20.51634580      33.51440427        9
C       30.27122064      16.45157326      38.24768427       10
C       22.88026928      19.40095722      33.05768427       10
H       29.35719365      16.26336671      37.99026027       11
H       23.79429627      19.58916377      32.80026027       11
H       30.25645942      17.00723068      39.04175427       12
H       22.89503050      18.84529980      33.85175427       12
O       22.98456783      19.44169457      39.83271027       13
O       30.16692209      16.41083591      34.64271027       13
O       30.03399487      19.87351045      36.97198227       14
O       23.11749505      15.97902002      31.78198227       14
O       23.68597379      14.55321286      36.28171227       15
O       29.46551613      21.29931762      31.09171227       15
O       30.40697242      14.65912996      39.78081027       16
O       22.74451750      21.19340052      34.59081027       16
O       23.14811948      17.13596070      37.19930427       17
O       30.00337044      18.71656978      32.00930427       17
C       26.87471401      17.55962911      32.61445827       18
C       26.27677591      18.29290137      37.80445827       18
H       27.83920457      17.61340241      32.77742427       19
H       25.31228535      18.23912807      37.96742427       19
C       26.55159122      16.44179629      31.62939627       20
C       26.59989870      19.41073419      36.81939627       20
H       25.57424910      16.34402666      31.58580027       21
H       27.57724082      19.50850382      36.77580027       21
C       27.05418708      16.81006191      30.24989427       22
C       26.09730284      19.04246856      35.43989427       22
H       28.02813495      16.91027579      30.27895827       23
H       25.12335497      18.94225469      35.46895827       23
C       26.41131022      18.13809945      29.84507427       24
C       26.74017970      17.71443103      35.03507427       24
H       25.44262405      18.03951507      29.75580627       25
H       27.70886587      17.81301541      34.94580627       25
C       26.74764285      19.20867694      30.89656827       26
C       26.40384707      16.64385354      36.08656827       26
H       27.70447830      19.41725216      30.87788427       27
H       25.44701162      16.43527832      36.06788427       27
C       25.90743364      20.49271814      30.62357427       28
C       27.24405628      15.35981234      35.81357427       28
H       25.01841958      20.24259082      30.33501027       29
H       28.13307034      15.60993965      35.52501027       29
H       25.82611127      21.00437922      31.44463227       30
H       27.32537865      14.84815125      36.63463227       30
O       27.10615059      15.20501042      32.07158427       31
O       26.04533933      20.64752006      37.26158427       31
O       26.71654477      15.75089088      39.75174627       32
O       26.43494515      20.10163960      34.56174627       32
O       26.98568483      18.62694762      38.99919627       33
O       26.16580509      17.22558286      33.80919627       33
O       26.35888754      18.79804448      32.19510627       34
O       26.79260238      17.05448600      37.38510627       34
O       26.51538013      21.29931762      29.63228427       35
O       26.63610979      14.55321286      34.82228427       35
C       22.36426658      21.65780628      40.28527827        0
C       30.78722334      14.19472420      45.47527827        0
H       23.30933601      21.84682757      40.45654827        1
H       29.84215391      14.00570291      45.64654827        1
C       29.96974615      20.50086561      49.68021627        2
C       23.18174377      15.35166487      44.49021627        2
H       29.02982896      20.22629589      49.64907627        3
H       24.12166096      15.62623459      44.45907627        3
C       22.65552212      20.88379668      48.29760027        4
C       30.49596780      14.96873380      43.10760027        4
H       23.63735812      20.92208978      48.30590427        5
H       29.51413180      14.93044070      43.11590427        5
C       30.85293722      14.09695456      47.88032427        6
C       22.29855270      21.75557591      42.69032427        6
H       29.89465090      13.99592594      47.69867427        7
H       23.25683902      21.85660454      42.50867427        7
C       23.20513102      15.14797813      48.93700827        8
C       29.94635890      20.70455235      43.74700827        8
H       24.15418601      15.33618468      49.08440427        9
H       28.99730391      20.51634580      43.89440427        9
C       30.27122064      16.45157326      48.62768427       10
C       22.88026928      19.40095722      43.43768427       10
H       29.35719365      16.26336671      48.37026027       11
H       23.79429627      19.58916377      43.18026027       11
H       30.25645942      17.00723068      49.42175427       12
H       22.89503050      18.84529980      44.23175427       12
O       22.98456783      19.44169457      50.21271027       13
O       30.16692209      16.41083591      45.02271027       13
O       30.03399487      19.87351045      47.35198227       14
O       23.11749505      15.97902002      42.16198227       14
O       23.68597379      14.55321286      46.66171227       15
O       29.46551613      21.29931762      41.47171227       15
O       30.40697242      14.65912996      50.16081027       16
O       22.74451750      21.19340052      44.97081027       16
O       23.14811948      17.13596070      47.57930427       17
O       30.00337044      18.71656978      42.38930427       17
C       26.87471401      17.55962911      42.99445827       18
C       26.27677591      18.29290137      48.18445827       18
H       27.83920457      17.61340241      43.15742427       19
H       25.31228535      18.23912807      48.34742427       19
C       26.55159122      16.44179629      42.00939627       20
C       26.59989870      19.41073419      47.19939627       20
H       25.57424910      16.34402666      41.96580027       21
H       27.57724082      19.50850382      47.15580027       21
C       27.05418708      16.81006191      40.62989427       22
C       26.09730284      19.04246856      45.81989427       22
H       28.02813495      16.91027579      40.65895827       23
H       25.12335497      18.94225469      45.84895827       23
C       26.41131022      18.13809945      40.22507427       24
C       26.74017970      17.71443103      45.41507427       24
H       25.44262405      18.03951507      40.13580627       25
H       27.70886587      17.81301541      45.32580627       25
C       26.74764285      19.20867694      41.27656827       26
C       26.40384707      16.64385354      46.46656827       26
H       27.70447830      19.41725216      41.25788427       27
H       25.44701162      16.43527832      46.44788427       27
C       25.90743364      20.49271814      41.00357427       28
C       27.24405628      15.35981234      46.19357427       28
H       25.01841958      20.24259082      40.71501027       29
H       28.13307034      15.60993965      45.90501027       29
H       25.82611127      21.00437922      41.82463227       30
H       27.32537865      14.84815125      47.01463227       30
O       27.10615059      15.20501042      42.45158427       31
O       26.04533933      20.64752006      47.64158427       31
O       26.71654477      15.75089088      50.13174627       32
O       26.43494515      20.10163960      44.94174627       32
O       26.98568483      18.62694762      49.37919627       33
O       26.16580509      17.22558286      44.18919627       33
O       26.35888754      18.79804448      42.57510627       34
O       26.79260238      17.05448600      47.76510627       34
O       26.51538013      21.29931762      40.01228427       35
O       26.63610979      14.55321286      45.20228427       35
C       22.36426658      21.65780628      50.66527827        0
C       30.78722334      14.19472420      55.85527827        0
H       23.30933601      21.84682757      50.83654827        1
H       29.84215391      14.00570291      56.02654827        1
C       29.96974615      20.50086561      60.06021627        2
C       23.18174377      15.35166487      54.87021627        2
H       29.02982896      20.22629589      60.02907627        3
H       24.12166096      15.62623459      54.83907627        3
C       22.65552212      20.88379668      58.67760027        4
C       30.49596780      14.96873380      53.48760027        4
H       23.63735812      20.92208978      58.68590427        5
H       29.51413180      14.93044070      53.49590427        5
C       30.85293722      14.09695456      58.26032427        6
C       22.29855270      21.75557591      53.07032427        6
H       29.89465090      13.99592594      58.07867427        7
H       23.25683902      21.85660454      52.88867427        7
C       23.20513102      15.14797813      59.31700827        8
C       29.94635890      20.70455235      54.12700827        8
H       24.15418601      15.33618468      59.46440427        9
H       28.99730391      20.51634580      54.27440427        9
C       30.27122064      16.45157326      59.00768427       10
C       22.88026928      19.40095722      53.81768427       10
H       29.35719365      16.26336671      58.75026027       11
H       23.79429627      19.58916377      53.56026027       11
H       30.25645942      17.00723068      59.80175427       12
H       22.89503050      18.84529980      54.61175427       12
O       22.98456783      19.44169457      60.59271027       13
O       30.16692209      16.41083591      55.40271027       13
O       30.03399487      19.87351045      57.73198227       14
O       23.11749505      15.97902002      52.54198227       14
O       23.68597379      14.55321286      57.04171227       15
O       29.46551613      21.29931762      51.85171227       15
O       30.40697242      14.65912996      60.54081027       16
O       22.74451750      21.19340052      55.35081027       16
O       23.14811948      17.13596070      57.95930427       17
O       30.00337044      18.71656978      52.76930427       17
C       26.87471401      17.55962911      53.37445827       18
C       26.27677591      18.29290137      58.56445827       18
H       27.83920457      17.61340241      53.53742427       19
H       25.31228535      18.23912807      58.72742427       19
C       26.55159122      16.44179629      52.38939627       20
C       26.59989870      19.41073419      57.57939627       20
H       25.57424910      16.34402666      52.34580027       21
H       27.57724082      19.50850382      57.53580027       21
C       27.05418708      16.81006191      51.00989427       22
C       26.09730284      19.04246856      56.19989427       22
H       28.02813495      16.91027579      51.03895827       23
H       25.12335497      18.94225469      56.22895827       23
C       26.41131022      18.13809945      50.60507427       24
C       26.74017970      17.71443103      55.79507427       24
H       25.44262405      18.03951507      50.51580627       25
H       27.70886587      17.81301541      55.70580627       25
C       26.74764285      19.20867694      51.65656827       26
C       26.40384707      16.64385354      56.84656827       26
H       27.70447830      19.41725216      51.63788427       27
H       25.44701162      16.43527832      56.82788427       27
C       25.90743364      20.49271814      51.38357427       28
C       27.24405628      15.35981234      56.57357427       28
H       25.01841958      20.24259082      51.09501027       29
H       28.13307034      15.60993965      56.28501027       29
H       25.82611127      21.00437922      52.20463227       30
H       27.32537865      14.84815125      57.39463227       30
O       27.10615059      15.20501042      52.83158427       31
O       26.04533933      20.64752006      58.02158427       31
O       26.71654477      15.75089088      60.51174627       32
O       26.43494515      20.10163960      55.32174627       32
O       26.98568483      18.62694762      59.75919627       33
O       26.16580509      17.22558286      54.56919627       33
O       26.35888754      18.79804448      52.95510627       34
O       26.79260238      17.05448600      58.14510627       34
O       26.51538013      21.29931762      50.39228427       35
O       26.63610979      14.55321286      55.58228427       35
C       22.36426658      21.65780628      61.04527827        0
C       30.78722334      14.19472420      66.23527827        0
H       23.30933601      21.84682757      61.21654827        1
H       29.84215391      14.00570291      66.40654827        1
C       29.96974615      20.50086561      70.44021627        2
C       23.18174377      15.35166487      65.25021627        2
H       29.02982896      20.22629589      70.40907627        3
H       24.12166096      15.62623459      65.21907627        3
C       22.65552212      20.88379668      69.05760027        4
C       30.49596780      14.96873380      63.86760027        4
H       23.63735812      20.92208978      69.06590427        5
H       29.51413180      14.93044070      63.87590427        5
C       30.85293722      14.09695456      68.64032427        6
C       22.29855270      21.75557591      63.45032427        6
H       29.89465090      13.99592594      68.45867427        7
H       23.25683902      21.85660454      63.26867427        7
C       23.20513102      15.14797813      69.69700827        8
C       29.94635890      20.70455235      64.50700827        8
H       24.15418601      15.33618468      69.84440427        9
H       28.99730391      20.51634580      64.65440427        9
C       30.27122064      16.45157326      69.38768427       10
C       22.88026928      19.40095722      64.19768427       10
H       29.35719365      16.26336671      69.13026027       11
H       23.79429627      19.58916377      63.94026027       11
H       30.25645942      17.00723068      70.18175427       12
H       22.89503050      18.84529980      64.99175427       12
O       22.98456783      19.44169457      70.97271027       13
O       30.16692209      16.41083591      65.78271027       13
O       30.03399487      19.87351045      68.11198227       14
O       23.11749505      15.97902002      62.92198227       14
O       23.68597379      14.55321286      67.42171227       15
O       29.46551613      21.29931762      62.23171227       15
O       30.40697242      14.65912996      70.92081027       16
O       22.74451750      21.19340052      65.73081027       16
O       23.14811948      17.13596070      68.33930427       17
O       30.00337044      18.71656978      63.14930427       17
C       26.87471401      17.55962911      63.75445827       18
C       26.27677591      18.29290137      68.94445827       18
H       27.83920457      17.61340241      63.91742427       19
H       25.31228535      18.23912807      69.10742427       19
C       26.55159122      16.44179629      62.76939627       20
C       26.59989870      19.41073419      67.95939627       20
H       25.57424910      16.34402666      62.72580027       21
H       27.57724082      19.50850382      67.91580027       21
C       27.05418708      16.81006191      61.38989427       22
C       26.09730284      19.04246856      66.57989427       22
H       28.02813495      16.91027579      61.41895827       23
H       25.12335497      18.94225469      66.60895827       23
C       26.41131022      18.13809945      60.98507427       24
C       26.74017970      17.71443103      66.17507427       24
H       25.44262405      18.03951507      60.89580627       25
H       27.70886587      17.81301541      66.08580627       25
C       26.74764285      19.20867694      62.03656827       26
C       26.40384707      16.64385354      67.22656827       26
H       27.70447830      19.41725216      62.01788427       27
H       25.44701162      16.43527832      67.20788427       27
C       25.90743364      20.49271814      61.76357427       28
C       27.24405628      15.35981234      66.95357427       28
H       25.01841958      20.24259082      61.47501027       29
H       28.13307034      15.60993965      66.66501027       29
H       25.82611127      21.00437922      62.58463227       30
H       27.32537865      14.84815125      67.77463227       30
O       27.10615059      15.20501042      63.21158427       31
O       26.04533933      20.64752006      68.40158427       31
O       26.71654477      15.75089088      70.89174627       32
O       26.43494515      20.10163960      65.70174627       32
O       26.98568483      18.62694762      70.13919627       33
O       26.16580509      17.22558286      64.94919627       33
O       26.35888754      18.79804448      63.33510627       34
O       26.79260238      17.05448600      68.52510627       34
O       26.51538013      21.29931762      60.77228427       35
O       26.63610979      14.55321286      65.96228427       35
C       21.42877666      29.80527580       9.14527827        0
C       29.85173342      22.34219372      14.33527827        0
H       22.37384609      29.99429709       9.31654827        1
H       28.90666399      22.15317243      14.50654827        1
C       29.03425623      28.64833513      18.54021627        2
C       22.24625385      23.49913439      13.35021627        2
H       28.09433904      28.37376541      18.50907627        3
H       23.18617104      23.77370411      13.31907627        3
C       21.72003220      29.03126620      17.15760027        4
C       29.56047788      23.11620332      11.96760027        4
H       22.70186820      29.06955930      17.16590427        5
H       28.57864188      23.07791022      11.97590427        5
C       29.91744730      22.24442409      16.74032427        6
C       21.36306278      29.90304544      11.55032427        6
H       28.95916098      22.14339546      16.55867427        7
H       22.32134910      30.00407406      11.36867427        7
C       22.26964110      23.29544765      17.79700827        8
C       29.01086898      28.85202187      12.60700827        8
H       23.21869609      23.48365420      17.94440427        9
H       28.06181399      28.66381532      12.75440427        9
C       29.33573072      24.59904278      17.48768427       10
C       21.94477936      27.54842674      12.29768427       10
H       28.42170373      24.41083623      17.23026027       11
H       22.85880635      27.73663329      12.04026027       11
H       29.32096950      25.15470020      18.28175427       12
H       21.95954058      26.99276932      13.09175427       12
O       22.04907791      27.58916409      19.07271027       13
O       29.23143217      24.55830543      13.88271027       13
O       29.09850495      28.02097998      16.21198227       14
O       22.18200513      24.12648955      11.02198227       14
O       22.75048387      22.70068238      15.52171227       15
O       28.53002621      29.44678714      10.33171227       15
O       29.47148250      22.80659948      19.02081027       16
O       21.80902758      29.34087004      13.83081027       16
O       22.21262956      25.28343022      16.43930427       17
O       29.06788052      26.86403930      11.24930427       17
C       25.93922409      25.70709863      11.85445827       18
C       25.34128599      26.44037089      17.04445827       18
H       26.90371465      25.76087193      12.01742427       19
H       24.37679543      26.38659759      17.20742427       19
C       25.61610130      24.58926581      10.86939627       20
C       25.66440878      27.55820371      16.05939627       20
H       24.63875918      24.49149618      10.82580027       21
H       26.64175090      27.65597334      16.01580027       21
C       26.11869716      24.95753144       9.48989427       22
C       25.16181292      27.18993809      14.67989427       22
H       27.09264503      25.05774531       9.51895827       23
H       24.18786505      27.08972421      14.70895827       23
C       25.47582030      26.28556897       9.08507427       24
C       25.80468978      25.86190055      14.27507427       24
H       24.50713413      26.18698459       8.99580627       25
H       26.77337595      25.96048493      14.18580627       25
C       25.81215293      27.35614646      10.13656827       26
C       25.46835715      24.79132306      15.32656827       26
H       26.76898838      27.56472168      10.11788427       27
H       24.51152170      24.58274784      15.30788427       27
C       24.97194372      28.64018766       9.86357427       28
C       26.30856636      23.50728186      15.05357427       28
H       24.08292966      28.39006035       9.57501027       29
H       27.19758042      23.75740918      14.76501027       29
H       24.89062135      29.15184875      10.68463227       30
H       26.38988873      22.99562078      15.87463227       30
O       26.17066067      23.35247994      11.31158427       31
O       25.10984941      28.79498958      16.50158427       31
O       25.78105485      23.89836040      18.99174627       32
O       25.49945523      28.24910912      13.80174627       32
O       26.05019491      26.77441714      18.23919627       33
O       25.23031517      25.37305238      13.04919627       33
O       25.42339762      26.94551400      11.43510627       34
O       25.85711246      25.20195552      16.62510627       34
O       25.57989021      29.44678714       8.87228427       35
O       25.70061987      22.70068238      14.06228427       35
C       21.42877666      29.80527580      19.52527827        0
C       29.85173342      22.34219372      24.71527827        0
H       22.37384609      29.99429709      19.69654827        1
H       28.90666399      22.15317243      24.88654827        1
C       29.03425623      28.64833513      28.92021627        2
C       22.24625385      23.49913439      23.73021627        2
H       28.09433904      28.37376541      28.88907627        3
H       23.18617104      23.77370411      23.69907627        3
C       21.72003220      29.03126620      27.53760027        4
C       29.56047788      23.11620332      22.34760027        4
H       22.70186820      29.06955930      27.54590427        5
H       28.57864188      23.07791022      22.35590427        5
C       29.91744730      22.24442409      27.12032427        6
C       21.36306278      29.90304544      21.93032427        6
H       28.95916098      22.14339546      26.93867427        7
H       22.32134910      30.00407406      21.74867427        7
C       22.26964110      23.29544765      28.17700827        8
C       29.01086898      28.85202187      22.98700827        8
H       23.21869609      23.48365420      28.32440427        9
H       28.06181399      28.66381532      23.13440427        9
C       29.33573072      24.59904278      27.86768427       10
C       21.94477936      27.54842674      22.67768427       10
H       28.42170373      24.41083623      27.61026027       11
H       22.85880635      27.73663329      22.42026027       11
H       29.32096950      25.15470020      28.66175427       12
H       21.95954058      26.99276932      23.47175427       12
O       22.04907791      27.58916409      29.45271027       13
O       29.23143217      24.55830543      24.26271027       13
O       29.09850495      28.02097998      26.59198227       14
O       22.18200513      24.12648955      21.40198227       14
O       22.75048387      22.70068238      25.90171227       15
O       28.53002621      29.44678714      20.71171227       15
O       29.47148250      22.80659948      29.40081027       16
O       21.80902758      29.34087004      24.21081027       16
O       22.21262956      25.28343022      26.81930427       17
O       29.06788052      26.86403930      21.62930427       17
C       25.93922409      25.70709863      22.23445827       18
C       25.34128599      26.44037089      27.42445827       18
H       26.90371465      25.76087193      22.39742427       19
H       24.37679543      26.38659759      27.58742427       19
C       25.61610130      24.58926581      21.24939627       20
C       25.66440878      27.55820371      26.43939627       20
H       24.63875918      24.49149618      21.20580027       21
H       26.64175090      27.65597334      26.39580027       21
C       26.11869716      24.95753144      19.86989427       22
C       25.16181292      27.18993809      25.05989427       22
H       27.09264503      25.05774531      19.89895827       23
H       24.18786505      27.08972421      25.08895827       23
C       25.47582030      26.28556897      19.46507427       24
C       25.80468978      25.86190055      24.65507427       24
H       24.50713413      26.18698459      19.37580627       25
H       26.77337595      25.96048493      24.56580627       25
C       25.81215293      27.35614646      20.51656827       26
C       25.46835715      24.79132306      25.70656827       26
H       26.76898838      27.56472168      20.49788427       27
H       24.51152170      24.58274784      25.68788427       27
C       24.97194372      28.64018766      20.24357427       28
C       26.30856636      23.50728186      25.43357427       28
H       24.08292966      28.39006035      19.95501027       29
H       27.19758042      23.75740918      25.14501027       29
H       24.89062135      29.15184875      21.06463227       30
H       26.38988873      22.99562078      26.25463227       30
O       26.17066067      23.35247994      21.69158427       31
O       25.10984941      28.79498958      26.88158427       31
O       25.78105485      23.89836040      29.37174627       32
O       25.49945523      28.24910912      24.18174627       32
O       26.05019491      26.77441714      28.61919627       33
O       25.23031517      25.37305238      23.42919627       33
O       25.42339762      26.94551400      21.81510627       34
O       25.85711246      25.20195552      27.00510627       34
O       25.57989021      29.44678714      19.25228427       35
O       25.70061987      22.70068238      24.44228427       35
C       21.42877666      29.80527580      29.90527827        0
C       29.85173342      22.34219372      35.09527827        0
H       22.37384609      29.99429709      30.07654827        1
H       28.90666399      22.15317243      35.26654827        1
C       29.03425623      28.64833513      39.30021627        2
C       22.24625385      23.49913439      34.11021627        2
H       28.09433904      28.37376541      39.26907627        3
H       23.18617104      23.77370411      34.07907627        3
C       21.72003220      29.03126620      37.91760027        4
C       29.56047788      23.11620332      32.72760027        4
H       22.70186820      29.06955930      37.92590427        5
H       28.57864188      23.07791022      32.73590427        5
C       29.91744730      22.24442409      37.50032427        6
C       21.36306278      29.90304544      32.31032427        6
H       28.95916098      22.14339546      37.31867427        7
H       22.32134910      30.00407406      32.12867427        7
C       22.26964110      23.29544765      38.55700827        8
C       29.01086898      28.85202187      33.36700827        8
H       23.21869609      23.48365420      38.70440427        9
H       28.06181399      28.66381532      33.51440427        9
C       29.33573072      24.59904278      38.24768427       10
C       21.94477936      27.54842674      33.05768427       10
H       28.42170373      24.41083623      37.99026027       11
H       22.85880635      27.73663329      32.80026027       11
H       29.32096950      25.15470020      39.04175427       12
H       21.95954058      26.99276932      33.85175427       12
O       22.04907791      27.58916409      39.83271027       13
O       29.23143217      24.55830543      34.64271027       13
O       29.09850495      28.02097998      36.97198227       14
O       22.18200513      24.12648955      31.78198227       14
O       22.75048387      22.70068238      36.28171227       15
O       28.53002621      29.44678714      31.09171227       15
O       29.47148250      22.80659948      39.78081027       16
O       21.80902758      29.34087004      34.59081027       16
O       22.21262956      25.28343022      37.19930427       17
O       29.06788052      26.86403930      32.00930427       17
C       25.93922409      25.70709863      32.61445827       18
C       25.34128599      26.44037089      37.80445827       18
H       26.90371465      25.76087193      32.77742427       19
H       24.37679543      26.38659759      37.96742427       19
C       25.61610130      24.58926581      31.62939627       20
C       25.66440878      27.55820371      36.81939627       20
H       24.63875918      24.49149618      31.58580027       21
H       26.64175090      27.65597334      36.77580027       21
C       26.11869716      24.95753144      30.24989427       22
C       25.16181292      27.18993809      35.43989427       22
H       27.09264503      25.05774531      30.27895827       23
H       24.18786505      27.08972421      35.46895827       23
C       25.47582030      26.28556897      29.84507427       24
C       25.80468978      25.86190055      35.03507427       24
H       24.50713413      26.18698459      29.75580627       25
H       26.77337595      25.96048493      34.94580627       25
C       25.81215293      27.35614646      30.89656827       26
C       25.46835715      24.79132306      36.08656827       26
H       26.76898838      27.56472168      30.87788427       27
H       24.51152170      24.58274784      36.06788427       27
C       24.97194372      28.64018766      30.62357427       28
C       26.30856636      23.50728186      35.81357427       28
H       24.08292966      28.39006035      30.33501027       29
H       27.19758042      23.75740918      35.52501027       29
H       24.89062135      29.15184875      31.44463227       30
H       26.38988873      22.99562078      36.63463227       30
O       26.17066067      23.35247994      32.07158427       31
O       25.10984941      28.79498958      37.26158427       31
O       25.78105485      23.89836040      39.75174627       32
O       25.49945523      28.24910912      34.56174627       32
O       26.05019491      26.77441714      38.99919627       33
O       25.23031517      25.37305238      33.80919627       33
O       25.42339762      26.94551400      32.19510627       34
O       25.85711246      25.20195552      37.38510627       34
O       25.57989021      29.44678714      29.63228427       35
O       25.70061987      22.70068238      34.82228427       35
C       21.42877666      29.80527580      40.28527827        0
C       29.85173342      22.34219372      45.47527827        0
H       22.37384609      29.99429709      40.45654827        1
H       28.90666399      22.15317243      45.64654827        1
C       29.03425623      28.64833513      49.68021627        2
C       22.24625385      23.49913439      44.49021627        2
H       28.09433904      28.37376541      49.64907627        3
H       23.18617104      23.77370411      44.45907627        3
C       21.72003220      29.03126620      48.29760027        4
C       29.56047788      23.11620332      43.10760027        4
H       22.70186820      29.06955930      48.30590427        5
H       28.57864188      23.07791022      43.11590427        5
C       29.91744730      22.24442409      47.88032427        6
C       21.36306278      29.90304544      42.69032427        6
H       28.95916098      22.14339546      47.69867427        7
H       22.32134910      30.00407406      42.50867427        7
C       22.26964110      23.29544765      48.93700827        8
C       29.01086898      28.85202187      43.74700827        8
H       23.21869609      23.48365420      49.08440427        9
H       28.06181399      28.66381532      43.89440427        9
C       29.33573072      24.59904278      48.62768427       10
C       21.94477936      27.54842674      43.43768427       10
H       28.42170373      24.41083623      48.37026027       11
H       22.85880635      27.73663329      43.18026027       11
H       29.32096950      25.15470020      49.42175427       12
H       21.95954058      26.99276932      44.23175427       12
O       22.04907791      27.58916409      50.21271027       13
O       29.23143217      24.55830543      45.02271027       13
O       29.09850495      28.02097998      47.35198227       14
O       22.18200513      24.12648955      42.16198227       14
O       22.75048387      22.70068238      46.66171227       15
O       28.53002621      29.44678714      41.47171227       15
O       29.47148250      22.80659948      50.16081027       16
O       21.80902758      29.34087004      44.97081027       16
O       22.21262956      25.28343022      47.57930427       17
O       29.06788052      26.86403930      42.38930427       17
C       25.93922409      25.70709863      42.99445827       18
C       25.34128599      26.44037089      48.18445827       18
H       26.90371465      25.76087193      43.15742427       19
H       24.37679543      26.38659759      48.34742427       19
C       25.61610130      24.58926581      42.00939627       20
C       25.66440878      27.55820371      47.19939627       20
H       24.63875918      24.49149618      41.96580027       21
H       26.64175090      27.65597334      47.15580027       21
C       26.11869716      24.95753144      40.62989427       22
C       25.16181292      27.18993809      45.81989427       22
H       27.09264503      25.05774531      40.65895827       23
H       24.18786505      27.08972421      45.84895827       23
C       25.47582030      26.28556897      40.22507427       24
C       25.80468978      25.86190055      45.41507427       24
H       24.50713413      26.18698459      40.13580627       25
H       26.77337595      25.96048493      45.32580627       25
C       25.81215293      27.35614646      41.27656827       26
C       25.46835715      24.79132306      46.46656827       26
H       26.76898838      27.56472168      41.25788427       27
H       24.51152170      24.58274784      46.44788427       27
C       24.97194372      28.64018766      41.00357427       28
C       26.30856636      23.50728186      46.19357427       28
H       24.08292966      28.39006035      40.71501027       29
H       27.19758042      23.75740918      45.90501027       29
H       24.89062135      29.15184875      41.82463227       30
H       26.38988873      22.99562078      47.01463227       30
O       26.17066067      23.35247994      42.45158427       31
O       25.10984941      28.79498958      47.64158427       31
O       25.78105485      23.89836040      50.13174627       32
O       25.49945523      28.24910912      44.94174627       32
O       26.05019491      26.77441714      49.37919627       33
O       25.23031517      25.37305238      44.18919627       33
O       25.42339762      26.94551400      42.57510627       34
O       25.85711246      25.20195552      47.76510627       34
O       25.57989021      29.44678714      40.01228427       35
O       25.70061987      22.70068238      45.20228427       35
C       21.42877666      29.80527580      50.66527827        0
C       29.85173342      22.34219372      55.85527827        0
H       22.37384609      29.99429709      50.83654827        1
H       28.90666399      22.15317243      56.02654827        1
C       29.03425623      28.64833513      60.06021627        2
C       22.24625385      23.49913439      54.87021627        2
H       28.09433904      28.37376541      60.02907627        3
H       23.18617104      23.77370411      54.83907627        3
C       21.72003220      29.03126620      58.67760027        4
C       29.56047788      23.11620332      53.48760027        4
H       22.70186820      29.06955930      58.68590427        5
H       28.57864188      23.07791022      53.49590427        5
C       29.91744730      22.24442409      58.26032427        6
C       21.36306278      29.90304544      53.07032427        6
H       28.95916098      22.14339546      58.07867427        7
H       22.32134910      30.00407406      52.88867427        7
C       22.26964110      23.29544765      59.31700827        8
C       29.01086898      28.85202187      54.12700827        8
H       23.21869609      23.48365420      59.46440427        9
H       28.06181399      28.66381532      54.27440427        9
C       29.33573072      24.59904278      59.00768427       10
C       21.94477936      27.54842674      53.81768427       10
H       28.42170373      24.41083623      58.75026027       11
H       22.85880635      27.73663329      53.56026027       11
H       29.32096950      25.15470020      59.80175427       12
H       21.95954058      26.99276932      54.61175427       12
O       22.04907791      27.58916409      60.59271027       13
O       29.23143217      24.55830543      55.40271027       13
O       29.09850495      28.02097998      57.73198227       14
O       22.18200513      24.12648955      52.54198227       14
O       22.75048387      22.70068238      57.04171227       15
O       28.53002621      29.44678714      51.85171227       15
O       29.47148250      22.80659948      60.54081027       16
O       21.80902758      29.34087004      55.35081027       16
O       22.21262956      25.28343022      57.95930427       17
O       29.06788052      26.86403930      52.76930427       17
C       25.93922409      25.70709863      53.37445827       18
C       25.34128599      26.44037089      58.56445827       18
H       26.90371465      25.76087193      53.53742427       19
H       24.37679543      26.38659759      58.72742427       19
C       25.61610130      24.58926581      52.38939627       20
C       25.66440878      27.55820371      57.57939627       20
H       24.63875918      24.49149618      52.34580027       21
H       26.64175090      27.65597334      57.53580027       21
C       26.11869716      24.95753144      51.00989427       22
C       25.16181292      27.18993809      56.19989427       22
H       27.09264503      25.05774531      51.03895827       23
H       24.18786505      27.08972421      56.22895827       23
C       25.47582030      26.28556897      50.60507427       24
C       25.80468978      25.86190055      55.79507427       24
H       24.50713413      26.18698459      50.51580627       25
H       26.77337595      25.96048493      55.70580627       25
C       25.81215293      27.35614646      51.65656827       26
C       25.46835715      24.79132306      56.84656827       26
H       26.76898838      27.56472168      51.63788427       27
H       24.51152170      24.58274784      56.82788427       27
C       24.97194372      28.64018766      51.38357427       28
C       26.30856636      23.50728186      56.57357427       28
H       24.08292966      28.39006035      51.09501027       29
H       27.19758042      23.75740918      56.28501027       29
H       24.89062135      29.15184875      52.20463227       30
H       26.38988873      22.99562078      57.39463227       30
O       26.17066067      23.35247994      52.83158427       31
O       25.10984941      28.79498958      58.02158427       31
O       25.78105485      23.89836040      60.51174627       32
O       25.49945523      28.24910912      55.32174627       32
O       26.05019491      26.77441714      59.75919627       33
O       25.23031517      25.37305238      54.56919627       33
O       25.42339762      26.94551400      52.95510627       34
O       25.85711246      25.20195552      58.14510627       34
O       25.57989021      29.44678714      50.39228427       35
O       25.70061987      22.70068238      55.58228427       35
C       21.42877666      29.80527580      61.04527827        0
C       29.85173342      22.34219372      66.23527827        0
H       22.37384609      29.99429709      61.21654827        1
H       28.90666399      22.15317243      66.40654827        1
C       29.03425623      28.64833513      70.44021627        2
C       22.24625385      23.49913439      65.25021627        2
H       28.09433904      28.37376541      70.40907627        3
H       23.18617104      23.77370411      65.21907627        3
C       21.72003220      29.03126620      69.05760027        4
C       29.56047788      23.11620332      63.86760027        4
H       22.70186820      29.06955930      69.06590427        5
H       28.57864188      23.07791022      63.87590427        5
C       29.91744730      22.24442409      68.64032427        6
C       21.36306278      29.90304544      63.45032427        6
H       28.95916098      22.14339546      68.45867427        7
H       22.32134910      30.00407406      63.26867427        7
C       22.26964110      23.29544765      69.69700827        8
C       29.01086898      28.85202187      64.50700827        8
H       23.21869609      23.48365420      69.84440427        9
H       28.06181399      28.66381532      64.65440427        9
C       29.33573072      24.59904278      69.38768427       10
C       21.94477936      27.54842674      64.19768427       10
H       28.42170373      24.41083623      69.13026027       11
H       22.85880635      27.73663329      63.94026027       11
H       29.32096950      25.15470020      70.18175427       12
H       21.95954058      26.99276932      64.99175427       12
O       22.04907791      27.58916409      70.97271027       13
O       29.23143217      24.55830543      65.78271027       13
O       29.09850495      28.02097998      68.11198227       14
O       22.18200513      24.12648955      62.92198227       14
O       22.75048387      22.70068238      67.42171227       15
O       28.53002621      29.44678714      62.23171227       15
O       29.47148250      22.80659948      70.92081027       16
O       21.80902758      29.34087004      65.73081027       16
O       22.21262956      25.28343022      68.33930427       17
O       29.06788052      26.86403930      63.14930427       17
C       25.93922409      25.70709863      63.75445827       18
C       25.34128599      26.44037089      68.94445827       18
H       26.90371465      25.76087193      63.91742427       19
H       24.37679543      26.38659759      69.10742427       19
C       25.61610130      24.58926581      62.76939627       20
C       25.66440878      27.55820371      67.95939627       20
H       24.63875918      24.49149618      62.72580027       21
H       26.64175090      27.65597334      67.91580027       21
C       26.11869716      24.95753144      61.38989427       22
C       25.16181292      27.18993809      66.57989427       22
H       27.09264503      25.05774531      61.41895827       23
H       24.18786505      27.08972421      66.60895827       23
C       25.47582030      26.28556897      60.98507427       24
C       25.80468978      25.86190055      66.17507427       24
H       24.50713413      26.18698459      60.89580627       25
H       26.77337595      25.96048493      66.08580627       25
C       25.81215293      27.35614646      62.03656827       26
C       25.46835715      24.79132306      67.22656827       26
H       26.76898838      27.56472168      62.01788427       27
H       24.51152170      24.58274784      67.20788427       27
C       24.97194372      28.64018766      61.76357427       28
C       26.30856636      23.50728186      66.95357427       28
H       24.08292966      28.39006035      61.47501027       29
H       27.19758042      23.75740918      66.66501027       29
H       24.89062135      29.15184875      62.58463227       30
H       26.38988873      22.99562078      67.77463227       30
O       26.17066067      23.35247994      63.21158427       31
O       25.10984941      28.79498958      68.40158427       31
O       25.78105485      23.89836040      70.89174627       32
O       25.49945523      28.24910912      65.70174627       32
O       26.05019491      26.77441714      70.13919627       33
O       25.23031517      25.37305238      64.94919627       33
O       25.42339762      26.94551400      63.33510627       34
O       25.85711246      25.20195552      68.52510627       34
O       25.57989021      29.44678714      60.77228427       35
O       25.70061987      22.70068238      65.96228427       35
C       30.14826658      21.65780628       9.14527827        0
C       38.57122334      14.19472420      14.33527827        0
H       31.09333601      21.84682757       9.31654827        1
H       37.62615391      14.00570291      14.50654827        1
C       37.75374615      20.50086561      18.54021627        2
C       30.96574377      15.35166487      13.35021627        2
H       36.81382896      20.22629589      18.50907627        3
H       31.90566096      15.62623459      13.31907627        3
C       30.43952212      20.88379668      17.15760027        4
C       38.27996780      14.96873380      11.96760027        4
H       31.42135812      20.92208978      17.16590427        5
H       37.29813180      14.93044070      11.97590427        5
C       38.63693722      14.09695456      16.74032427        6
C       30.08255270      21.75557591      11.55032427        6
H       37.67865090      13.99592594      16.55867427        7
H       31.04083902      21.85660454      11.36867427        7
C       30.98913102      15.14797813      17.79700827        8
C       37.73035890      20.70455235      12.60700827        8
H       31.93818601      15.33618468      17.94440427        9
H       36.78130391      20.51634580      12.75440427        9
C       38.05522064      16.45157326      17.48768427       10
C       30.66426928      19.40095722      12.29768427       10
H       37.14119365      16.26336671      17.23026027       11
H       31.57829627      19.58916377      12.04026027       11
H       38.04045942      17.00723068      18.28175427       12
H       30.67903050      18.84529980      13.09175427       12
O       30.76856783      19.44169457      19.07271027       13
O       37.95092209      16.41083591      13.88271027       13
O       37.81799487      19.87351045      16.21198227       14
O       30.90149505      15.97902002      11.02198227       14
O       31.46997379      14.55321286      15.52171227       15
O       37.24951613      21.29931762      10.33171227       15
O       38.19097242      14.65912996      19.02081027       16
O       30.52851750      21.19340052      13.83081027       16
O       30.93211948      17.13596070      16.43930427       17
O       37.78737044      18.71656978      11.24930427       17
C       34.65871401      17.55962911      11.85445827       18
C       34.06077591      18.29290137      17.04445827       18
H       35.62320457      17.61340241      12.01742427       19
H       33.09628535      18.23912807      17.20742427       19
C       34.33559122      16.44179629      10.86939627       20
C       34.38389870      19.41073419      16.05939627       20
H       33.35824910      16.34402666      10.82580027       21
H       35.36124082      19.50850382      16.01580027       21
C       34.83818708      16.81006191       9.48989427       22
C       33.88130284      19.04246856      14.67989427       22
H       35.81213495      16.91027579       9.51895827       23
H       32.90735497      18.94225469      14.70895827       23
C       34.19531022      18.13809945       9.08507427       24
C       34.52417970      17.71443103      14.27507427       24
H       33.22662405      18.03951507       8.99580627       25
H       35.49286587      17.81301541      14.18580627       25
C       34.53164285      19.20867694      10.13656827       26
C       34.18784707      16.64385354      15.32656827       26
H       35.48847830      19.41725216      10.11788427       27
H       33.23101162      16.43527832      15.30788427       27
C       33.69143364      20.49271814       9.86357427       28
C       35.02805628      15.35981234      15.05357427       28
H       32.80241958      20.24259082       9.57501027       29
H       35.91707034      15.60993965      14.76501027       29
H       33.61011127      21.00437922      10.68463227       30
H       35.10937865      14.84815125      15.87463227       30
O       34.89015059      15.20501042      11.31158427       31
O       33.82933933      20.64752006      16.50158427       31
O       34.50054477      15.75089088      18.99174627       32
O       34.21894515      20.10163960      13.80174627       32
O       34.76968483      18.62694762      18.23919627       33
O       33.94980509      17.22558286      13.04919627       33
O       34.14288754      18.79804448      11.43510627       34
O       34.57660238      17.05448600      16.62510627       34
O       34.29938013      21.29931762       8.87228427       35
O       34.42010979      14.55321286      14.06228427       35
C       30.14826658      21.65780628      19.52527827        0
C       38.57122334      14.19472420      24.71527827        0
H       31.09333601      21.84682757      19.69654827        1
H       37.62615391      14.00570291      24.88654827        1
C       37.75374615      20.50086561      28.92021627        2
C       30.96574377      15.35166487      23.73021627        2
H       36.81382896      20.22629589      28.88907627        3
H       31.90566096      15.62623459      23.69907627        3
C       30.43952212      20.88379668      27.53760027        4
C       38.27996780      14.96873380      22.34760027        4
H       31.42135812      20.92208978      27.54590427        5
H       37.29813180      14.93044070      22.35590427        5
C       38.63693722      14.09695456      27.12032427        6
C       30.08255270      21.75557591      21.93032427        6
H       37.67865090      13.99592594      26.93867427        7
H       31.04083902      21.85660454      21.74867427        7
C       30.98913102      15.14797813      28.17700827        8
C       37.73035890      20.70455235      22.98700827        8
H       31.93818601      15.33618468      28.32440427        9
H       36.78130391      20.51634580      23.13440427        9
C       38.05522064      16.45157326      27.86768427       10
C       30.66426928      19.40095722      22.67768427       10
H       37.14119365      16.26336671      27.61026027       11
H       31.57829627      19.58916377      22.42026027       11
H       38.04045942      17.00723068      28.66175427       12
H       30.67903050      18.84529980      23.47175427       12
O       30.76856783      19.44169457      29.45271027       13
O       37.95092209      16.41083591      24.26271027       13
O       37.81799487      19.87351045      26.59198227       14
O       30.90149505      15.97902002      21.40198227       14
O       31.46997379      14.55321286      25.90171227       15
O       37.24951613      21.29931762      20.71171227       15
O       38.19097242      14.65912996      29.40081027       16
O       30.52851750      21.19340052      24.21081027       16
O       30.93211948      17.13596070      26.81930427       17
O       37.78737044      18.71656978      21.62930427       17
C       34.65871401      17.55962911      22.23445827       18
C       34.06077591      18.29290137      27.42445827       18
H       35.62320457      17.61340241      22.39742427       19
H       33.09628535      18.23912807      27.58742427       19
C       34.33559122      16.44179629      21.24939627       20
C       34.38389870      19.41073419      26.43939627       20
H       33.35824910      16.34402666      21.20580027       21
H       35.36124082      19.50850382      26.39580027       21
C       34.83818708      16.81006191      19.86989427       22
C       33.88130284      19.04246856      25.05989427       22
H       35.81213495      16.91027579      19.89895827       23
H       32.90735497      18.94225469      25.08895827       23
C       34.19531022      18.13809945      19.46507427       24
C       34.52417970      17.71443103      24.65507427       24
H       33.22662405      18.03951507      19.37580627       25
H       35.49286587      17.81301541      24.56580627       25
C       34.53164285      19.20867694      20.51656827       26
C       34.18784707      16.64385354      25.70656827       26
H       35.48847830      19.41725216      20.49788427       27
H       33.23101162      16.43527832      25.68788427       27
C       33.69143364      20.49271814      20.24357427       28
C       35.02805628      15.35981234      25.43357427       28
H       32.80241958      20.24259082      19.95501027       29
H       35.91707034      15.60993965      25.14501027       29
H       33.61011127      21.00437922      21.06463227       30
H       35.10937865      14.84815125      26.25463227       30
O       34.89015059      15.20501042      21.69158427       31
O       33.82933933      20.64752006      26.88158427       31
O       34.50054477      15.75089088      29.37174627       32
O       34.21894515      20.10163960      24.18174627       32
O       34.76968483      18.62694762      28.61919627       33
O       33.94980509      17.22558286      23.42919627       33
O       34.14288754      18.79804448      21.81510627       34
O       34.57660238      17.05448600      27.00510627       34
O       34.29938013      21.29931762      19.25228427       35
O       34.42010979      14.55321286      24.44228427       35
C       30.14826658      21.65780628      29.90527827        0
C       38.57122334      14.19472420      35.09527827        0
H       31.09333601      21.84682757      30.07654827        1
H       37.62615391      14.00570291      35.26654827        1
C       37.75374615      20.50086561      39.30021627        2
C       30.96574377      15.35166487      34.11021627        2
H       36.81382896      20.22629589      39.26907627        3
H       31.90566096      15.62623459      34.07907627        3
C       30.43952212      20.88379668      37.91760027        4
C       38.27996780      14.96873380      32.72760027        4
H       31.42135812      20.92208978      37.92590427        5
H       37.29813180      14.93044070      32.73590427        5
C       38.63693722      14.09695456      37.50032427        6
C       30.08255270      21.75557591      32.31032427        6
H       37.67865090      13.99592594      37.31867427        7
H       31.04083902      21.85660454      32.12867427        7
C       30.98913102      15.14797813      38.55700827        8
C       37.73035890      20.70455235      33.36700827        8
H       31.93818601      15.33618468      38.70440427        9
H       36.78130391      20.51634580      33.51440427        9
C       38.05522064      16.45157326      38.24768427       10
C       30.66426928      19.40095722      33.05768427       10
H       37.14119365      16.26336671      37.99026027       11
H       31.57829627      19.58916377      32.80026027       11
H       38.04045942      17.00723068      39.04175427       12
H       30.67903050      18.84529980      33.85175427       12
O       30.76856783      19.44169457      39.83271027       13
O       37.95092209      16.41083591      34.64271027       13
O       37.81799487      19.87351045      36.97198227       14
O       30.90149505      15.97902002      31.78198227       14
O       31.46997379      14.55321286      36.28171227       15
O       37.24951613      21.29931762      31.09171227       15
O       38.19097242      14.65912996      39.78081027       16
O       30.52851750      21.19340052      34.59081027       16
O       30.93211948      17.13596070      37.19930427       17
O       37.78737044      18.71656978      32.00930427       17
C       34.65871401      17.55962911      32.61445827       18
C       34.06077591      18.29290137      37.80445827       18
H       35.62320457      17.61340241      32.77742427       19
H       33.09628535      18.23912807      37.96742427       19
C       34.33559122      16.44179629      31.62939627       20
C       34.38389870      19.41073419      36.81939627       20
H       33.35824910      16.34402666      31.58580027       21
H       35.36124082      19.50850382      36.77580027       21
C       34.83818708      16.81006191      30.24989427       22
C       33.88130284      19.04246856      35.43989427       22
H       35.81213495      16.91027579      30.27895827       23
H       32.90735497      18.94225469      35.46895827       23
C       34.19531022      18.13809945      29.84507427       24
C       34.52417970      17.71443103      35.03507427       24
H       33.22662405      18.03951507      29.75580627       25
H       35.49286587      17.81301541      34.94580627       25
C       34.53164285      19.20867694      30.89656827       26
C       34.18784707      16.64385354      36.08656827       26
H       35.48847830      19.41725216      30.87788427       27
H       33.23101162      16.43527832      36.06788427       27
C       33.69143364      20.49271814      30.62357427       28
C       35.02805628      15.35981234      35.81357427       28
H       32.80241958      20.24259082      30.33501027       29
H       35.91707034      15.60993965      35.52501027       29
H       33.61011127      21.00437922      31.44463227       30
H       35.10937865      14.84815125      36.63463227       30
O       34.89015059      15.20501042      32.07158427       31
O       33.82933933      20.64752006      37.26158427       31
O       34.50054477      15.75089088      39.75174627       32
O       34.21894515      20.10163960      34.56174627       32
O       34.76968483      18.62694762      38.99919627       33
O       33.94980509      17.22558286      33.80919627       33
O       34.14288754      18.79804448      32.19510627       34
O       34.57660238      17.05448600      37.38510627       34
O       34.29938013      21.29931762      29.63228427       35
O       34.42010979      14.55321286      34.82228427       35
C       30.14826658      21.65780628      40.28527827        0
C       38.57122334      14.19472420      45.47527827        0
H       31.09333601      21.84682757      40.45654827        1
H       37.62615391      14.00570291      45.64654827        1
C       37.75374615      20.50086561      49.68021627        2
C       30.96574377      15.35166487      44.49021627        2
H       36.81382896      20.22629589      49.64907627        3
H       31.90566096      15.62623459      44.45907627        3
C       30.43952212      20.88379668      48.29760027        4
C       38.27996780      14.96873380      43.10760027        4
H       31.42135812      20.92208978      48.30590427        5
H       37.29813180      14.93044070      43.11590427        5
C       38.63693722      14.09695456      47.88032427        6
C       30.08255270      21.75557591      42.69032427        6
H       37.67865090      13.99592594      47.69867427        7
H       31.04083902      21.85660454      42.50867427        7
C       30.98913102      15.14797813      48.93700827        8
C       37.73035890      20.70455235      43.74700827        8
H       31.93818601      15.33618468      49.08440427        9
H       36.78130391      20.51634580      43.89440427        9
C       38.05522064      16.45157326      48.62768427       10
C       30.66426928      19.40095722      43.43768427       10
H       37.14119365      16.26336671      48.37026027       11
H       31.57829627      19.58916377      43.18026027       11
H       38.04045942      17.00723068      49.42175427       12
H       30.67903050      18.84529980      44.23175427       12
O       30.76856783      19.44169457      50.21271027       13
O       37.95092209      16.41083591      45.02271027       13
O       37.81799487      19.87351045      47.35198227       14
O       30.90149505      15.97902002      42.16198227       14
O       31.46997379      14.55321286      46.66171227       15
O       37.24951613      21.29931762      41.47171227       15
O       38.19097242      14.65912996      50.16081027       16
O       30.52851750      21.19340052      44.97081027       16
O       30.93211948      17.13596070      47.57930427       17
O       37.78737044      18.71656978      42.38930427       17
C       34.65871401      17.55962911      42.99445827       18
C       34.06077591      18.29290137      48.18445827       18
H       35.62320457      17.61340241      43.15742427       19
H       33.09628535      18.23912807      48.34742427       19
C       34.33559122      16.44179629      42.00939627       20
C       34.38389870      19.41073419      47.19939627       20
H       33.35824910      16.34402666      41.96580027       21
H       35.36124082      19.50850382      47.15580027       21
C       34.83818708      16.81006191      40.62989427       22
C       33.88130284      19.04246856      45.81989427       22
H       35.81213495      16.91027579      40.65895827       23
H       32.90735497      18.94225469      45.84895827       23
C       34.19531022      18.13809945      40.22507427       24
C       34.52417970      17.71443103      45.41507427       24
H       33.22662405      18.03951507      40.13580627       25
H       35.49286587      17.81301541      45.32580627       25
C       34.53164285      19.20867694      41.27656827       26
C       34.18784707      16.64385354      46.46656827       26
H       35.48847830      19.41725216      41.25788427       27
H       33.23101162      16.43527832      46.44788427       27
C       33.69143364      20.49271814      41.00357427       28
C       35.02805628      15.35981234      46.19357427       28
H       32.80241958      20.24259082      40.71501027       29
H       35.91707034      15.60993965      45.90501027       29
H       33.61011127      21.00437922      41.82463227       30
H       35.10937865      14.84815125      47.01463227       30
O       34.89015059      15.20501042      42.45158427       31
O       33.82933933      20.64752006      47.64158427       31
O       34.50054477      15.75089088      50.13174627       32
O       34.21894515      20.10163960      44.94174627       32
O       34.76968483      18.62694762      49.37919627       33
O       33.94980509      17.22558286      44.18919627       33
O       34.14288754      18.79804448      42.57510627       34
O       34.57660238      17.05448600      47.76510627       34
O       34.29938013      21.29931762      40.01228427       35
O       34.42010979      14.55321286      45.20228427       35
C       30.14826658      21.65780628      50.66527827        0
C       38.57122334      14.19472420      55.85527827        0
H       31.09333601      21.84682757      50.83654827        1
H       37.62615391      14.00570291      56.02654827        1
C       37.75374615      20.50086561      60.06021627        2
C       30.96574377      15.35166487      54.87021627        2
H       36.81382896      20.22629589      60.02907627        3
H       31.90566096      15.62623459      54.83907627        3
C       30.43952212      20.88379668      58.67760027        4
C       38.27996780      14.96873380      53.48760027        4
H       31.42135812      20.92208978      58.68590427        5
H       37.29813180      14.93044070      53.49590427        5
C       38.63693722      14.09695456      58.26032427        6
C       30.08255270      21.75557591      53.07032427        6
H       37.67865090      13.99592594      58.07867427        7
H       31.04083902      21.85660454      52.88867427        7
C       30.98913102      15.14797813      59.31700827        8
C       37.73035890      20.70455235      54.12700827        8
H       31.93818601      15.33618468      59.46440427        9
H       36.78130391      20.51634580      54.27440427        9
C       38.05522064      16.45157326      59.00768427       10
C       30.66426928      19.40095722      53.81768427       10
H       37.14119365      16.26336671      58.75026027       11
H       31.57829627      19.58916377      53.56026027       11
H       38.04045942      17.00723068      59.80175427       12
H       30.67903050      18.84529980      54.61175427       12
O       30.76856783      19.44169457      60.59271027       13
O       37.95092209      16.41083591      55.40271027       13
O       37.81799487      19.87351045      57.73198227       14
O       30.90149505      15.97902002      52.54198227       14
O       31.46997379      14.55321286      57.04171227       15
O       37.24951613      21.29931762      51.85171227       15
O       38.19097242      14.65912996      60.54081027       16
O       30.52851750      21.19340052      55.35081027       16
O       30.93211948      17.13596070      57.95930427       17
O       37.78737044      18.71656978      52.76930427       17
C       34.65871401      17.55962911      53.37445827       18
C       34.06077591      18.29290137      58.56445827       18
H       35.62320457      17.61340241      53.53742427       19
H       33.09628535      18.23912807      58.72742427       19
C       34.33559122      16.44179629      52.38939627       20
C       34.38389870      19.41073419      57.57939627       20
H       33.35824910      16.34402666      52.34580027       21
H       35.36124082      19.50850382      57.53580027       21
C       34.83818708      16.81006191      51.00989427       22
C       33.88130284      19.04246856      56.19989427       22
H       35.81213495      16.91027579      51.03895827       23
H       32.90735497      18.94225469      56.22895827       23
C       34.19531022      18.13809945      50.60507427       24
C       34.52417970      17.71443103      55.79507427       24
H       33.22662405      18.03951507      50.51580627       25
H       35.49286587      17.81301541      55.70580627       25
C       34.53164285      19.20867694      51.65656827       26
C       34.18784707      16.64385354      56.84656827       26
H       35.48847830      19.41725216      51.63788427       27
H       33.23101162      16.43527832      56.82788427       27
C       33.69143364      20.49271814      51.38357427       28
C       35.02805628      15.35981234      56.57357427       28
H       32.80241958      20.24259082      51.09501027       29
H       35.91707034      15.60993965      56.28501027       29
H       33.61011127      21.00437922      52.20463227       30
H       35.10937865      14.84815125      57.39463227       30
O       34.89015059      15.20501042      52.83158427       31
O       33.82933933      20.64752006      58.02158427       31
O       34.50054477      15.75089088      60.51174627       32
O       34.21894515      20.10163960      55.32174627       32
O       34.76968483      18.62694762      59.75919627       33
O       33.94980509      17.22558286      54.56919627       33
O       34.14288754      18.79804448      52.95510627       34
O       34.57660238      17.05448600      58.14510627       34
O       34.29938013      21.29931762      50.39228427       35
O       34.42010979      14.55321286      55.58228427       35
C       30.14826658      21.65780628      61.04527827        0
C       38.57122334      14.19472420      66.23527827        0
H       31.09333601      21.84682757      61.21654827        1
H       37.62615391      14.00570291      66.40654827        1
C       37.75374615      20.50086561      70.44021627        2
C       30.96574377      15.35166487      65.25021627        2
H       36.81382896      20.22629589      70.40907627        3
H       31.90566096      15.62623459      65.21907627        3
C       30.43952212      20.88379668      69.05760027        4
C       38.27996780      14.96873380      63.86760027        4
H       31.42135812      20.92208978      69.06590427        5
H       37.29813180      14.93044070      63.87590427        5
C       38.63693722      14.09695456      68.64032427        6
C       30.08255270      21.75557591      63.45032427        6
H       37.67865090      13.99592594      68.45867427        7
H       31.04083902      21.85660454      63.26867427        7
C       30.98913102      15.14797813      69.69700827        8
C       37.73035890      20.70455235      64.50700827        8
H       31.93818601      15.33618468      69.84440427        9
H       36.78130391      20.51634580      64.65440427        9
C       38.05522064      16.45157326      69.38768427       10
C       30.66426928      19.40095722      64.19768427       10
H       37.14119365      16.26336671      69.13026027       11
H       31.57829627      19.58916377      63.94026027       11
H       38.04045942      17.00723068      70.18175427       12
H       30.67903050      18.84529980      64.99175427       12
O       30.76856783      19.44169457      70.97271027       13
O       37.95092209      16.41083591      65.78271027       13
O       37.81799487      19.87351045      68.11198227       14
O       30.90149505      15.97902002      62.92198227       14
O       31.46997379      14.55321286      67.42171227       15
O       37.24951613      21.29931762      62.23171227       15
O       38.19097242      14.65912996      70.92081027       16
O       30.52851750      21.19340052      65.73081027       16
O       30.93211948      17.13596070      68.33930427       17
O       37.78737044      18.71656978      63.14930427       17
C       34.65871401      17.55962911      63.75445827       18
C       34.06077591      18.29290137      68.94445827       18
H       35.62320457      17.61340241      63.91742427       19
H       33.09628535      18.23912807      69.10742427       19
C       34.33559122      16.44179629      62.76939627       20
C       34.38389870      19.41073419      67.95939627       20
H       33.35824910      16.34402666      62.72580027       21
H       35.36124082      19.50850382      67.91580027       21
C       34.83818708      16.81006191      61.38989427       22
C       33.88130284      19.04246856      66.57989427       22
H       35.81213495      16.91027579      61.41895827       23
H       32.90735497      18.94225469      66.60895827       23
C       34.19531022      18.13809945      60.98507427       24
C       34.52417970      17.71443103      66.17507427       24
H       33.22662405      18.03951507      60.89580627       25
H       35.49286587      17.81301541      66.08580627       25
C       34.53164285      19.20867694      62.03656827       26
C       34.18784707      16.64385354      67.22656827       26
H       35.48847830      19.41725216      62.01788427       27
H       33.23101162      16.43527832      67.20788427       27
C       33.69143364      20.49271814      61.76357427       28
C       35.02805628      15.35981234      66.95357427       28
H       32.80241958      20.24259082      61.47501027       29
H       35.91707034      15.60993965      66.66501027       29
H       33.61011127      21.00437922      62.58463227       30
H       35.10937865      14.84815125      67.77463227       30
O       34.89015059      15.20501042      63.21158427       31
O       33.82933933      20.64752006      68.40158427       31
O       34.50054477      15.75089088      70.89174627       32
O       34.21894515      20.10163960      65.70174627       32
O       34.76968483      18.62694762      70.13919627       33
O       33.94980509      17.22558286      64.94919627       33
O       34.14288754      18.79804448      63.33510627       34
O       34.57660238      17.05448600      68.52510627       34
O       34.29938013      21.29931762      60.77228427       35
O       34.42010979      14.55321286      65.96228427       35
C       29.21277666      29.80527580       9.14527827        0
C       37.63573342      22.34219372      14.33527827        0
H       30.15784609      29.99429709       9.31654827        1
H       36.69066399      22.15317243      14.50654827        1
C       36.81825623      28.64833513      18.54021627        2
C       30.03025385      23.49913439      13.35021627        2
H       35.87833904      28.37376541      18.50907627        3
H       30.97017104      23.77370411      13.31907627        3
C       29.50403220      29.03126620      17.15760027        4
C       37.34447788      23.11620332      11.96760027        4
H       30.48586820      29.06955930      17.16590427        5
H       36.36264188      23.07791022      11.97590427        5
C       37.70144730      22.24442409      16.74032427        6
C       29.14706278      29.90304544      11.55032427        6
H       36.74316098      22.14339546      16.55867427        7
H       30.10534910      30.00407406      11.36867427        7
C       30.05364110      23.29544765      17.79700827        8
C       36.79486898      28.85202187      12.60700827        8
H       31.00269609      23.48365420      17.94440427        9
H       35.84581399      28.66381532      12.75440427        9
C       37.11973072      24.59904278      17.48768427       10
C       29.72877936      27.54842674      12.29768427       10
H       36.20570373      24.41083623      17.23026027       11
H       30.64280635      27.73663329      12.04026027       11
H       37.10496950      25.15470020      18.28175427       12
H       29.74354058      26.99276932      13.09175427       12
O       29.83307791      27.58916409      19.07271027       13
O       37.01543217      24.55830543      13.88271027       13
O       36.88250495      28.02097998      16.21198227       14
O       29.96600513      24.12648955      11.02198227       14
O       30.53448387      22.70068238      15.52171227       15
O       36.31402621      29.44678714      10.33171227       15
O       37.25548250      22.80659948      19.02081027       16
O       29.59302758      29.34087004      13.83081027       16
O       29.99662956      25.28343022      16.43930427       17
O       36.85188052      26.86403930      11.24930427       17
C       33.72322409      25.70709863      11.85445827       18
C       33.12528599      26.44037089      17.04445827       18
H       34.68771465      25.76087193      12.01742427       19
H       32.16079543      26.38659759      17.20742427       19
C       33.40010130      24.58926581      10.86939627       20
C       33.44840878      27.55820371      16.05939627       20
H       32.42275918      24.49149618      10.82580027       21
H       34.42575090      27.65597334      16.01580027       21
C       33.90269716      24.95753144       9.48989427       22
C       32.94581292      27.18993809      14.67989427       22
H       34.87664503      25.05774531       9.51895827       23
H       31.97186505      27.08972421      14.70895827       23
C       33.25982030      26.28556897       9.08507427       24
C       33.58868978      25.86190055      14.27507427       24
H       32.29113413      26.18698459       8.99580627       25
H       34.55737595      25.96048493      14.18580627       25
C       33.59615293      27.35614646      10.13656827       26
C       33.25235715      24.79132306      15.32656827       26
H       34.55298838      27.56472168      10.11788427       27
H       32.29552170      24.58274784      15.30788427       27
C       32.75594372      28.64018766       9.86357427       28
C       34.09256636      23.50728186      15.05357427       28
H       31.86692966      28.39006035       9.57501027       29
H       34.98158042      23.75740918      14.76501027       29
H       32.67462135      29.15184875      10.68463227       30
H       34.17388873      22.99562078      15.87463227       30
O       33.95466067      23.35247994      11.31158427       31
O       32.89384941      28.79498958      16.50158427       31
O       33.56505485      23.89836040      18.99174627       32
O       33.28345523      28.24910912      13.80174627       32
O       33.83419491      26.77441714      18.23919627       33
O       33.01431517      25.37305238      13.04919627       33
O       33.20739762      26.94551400      11.43510627       34
O       33.64111246      25.20195552      16.62510627       34
O       33.36389021      29.44678714       8.87228427       35
O       33.48461987      22.70068238      14.06228427       35
C       29.21277666      29.80527580      19.52527827        0
C       37.63573342      22.34219372      24.71527827        0
H       30.15784609      29.99429709      19.69654827        1
H       36.69066399      22.15317243      24.88654827        1
C       36.81825623      28.64833513      28.92021627        2
C       30.03025385      23.49913439      23.73021627        2
H       35.87833904      28.37376541      28.88907627        3
H       30.97017104      23.77370411      23.69907627        3
C       29.50403220      29.03126620      27.53760027        4
C       37.34447788      23.11620332      22.34760027        4
H       30.48586820      29.06955930      27.54590427        5
H       36.36264188      23.07791022      22.35590427        5
C       37.70144730      22.24442409      27.12032427        6
C       29.14706278      29.90304544      21.93032427        6
H       36.74316098      22.14339546      26.93867427        7
H       30.10534910      30.00407406      21.74867427        7
C       30.05364110      23.29544765      28.17700827        8
C       36.79486898      28.85202187      22.98700827        8
H       31.00269609      23.48365420      28.32440427        9
H       35.84581399      28.66381532      23.13440427        9
C       37.11973072      24.59904278      27.86768427       10
C       29.72877936      27.54842674      22.67768427       10
H       36.20570373      24.41083623      27.61026027       11
H       30.64280635      27.73663329      22.42026027       11
H       37.10496950      25.15470020      28.66175427       12
H       29.74354058      26.99276932      23.47175427       12
O       29.83307791      27.58916409      29.45271027       13
O       37.01543217      24.55830543      24.26271027       13
O       36.88250495      28.02097998      26.59198227       14
O       29.96600513      24.12648955      21.40198227       14
O       30.53448387      22.70068238      25.90171227       15
O       36.31402621      29.44678714      20.71171227       15
O       37.25548250      22.80659948      29.40081027       16
O       29.59302758      29.34087004      24.21081027       16
O       29.99662956      25.28343022      26.81930427       17
O       36.85188052      26.86403930      21.62930427       17
C       33.72322409      25.70709863      22.23445827       18
C       33.12528599      26.44037089      27.42445827       18
H       34.68771465      25.76087193      22.39742427       19
H       32.16079543      26.38659759      27.58742427       19
C       33.40010130      24.58926581      21.24939627       20
C       33.44840878      27.55820371      26.43939627       20
H       32.42275918      24.49149618      21.20580027       21
H       34.42575090      27.65597334      26.39580027       21
C       33.90269716      24.95753144      19.86989427       22
C       32.94581292      27.18993809      25.05989427       22
H       34.87664503      25.05774531      19.89895827       23
H       31.97186505      27.08972421      25.08895827       23
C       33.25982030      26.28556897      19.46507427       24
C       33.58868978      25.86190055      24.65507427       24
H       32.29113413      26.18698459      19.37580627       25
H       34.55737595      25.96048493      24.56580627       25
C       33.59615293      27.35614646      20.51656827       26
C       33.25235715      24.79132306      25.70656827       26
H       34.55298838      27.56472168      20.49788427       27
H       32.29552170      24.58274784      25.68788427       27
C       32.75594372      28.64018766      20.24357427       28
C       34.09256636      23.50728186      25.43357427       28
H       31.86692966      28.39006035      19.95501027       29
H       34.98158042      23.75740918      25.14501027       29
H       32.67462135      29.15184875      21.06463227       30
H       34.17388873      22.99562078      26.25463227       30
O       33.95466067      23.35247994      21.69158427       31
O       32.89384941      28.79498958      26.88158427       31
O       33.56505485      23.89836040      29.37174627       32
O       33.28345523      28.24910912      24.18174627       32
O       33.83419491      26.77441714      28.61919627       33
O       33.01431517      25.37305238      23.42919627       33
O       33.20739762      26.94551400      21.81510627       34
O       33.64111246      25.20195552      27.00510627       34
O       33.36389021      29.44678714      19.25228427       35
O       33.48461987      22.70068238      24.44228427       35
C       29.21277666      29.80527580      29.90527827        0
C       37.63573342      22.34219372      35.09527827        0
H       30.15784609      29.99429709      30.07654827        1
H       36.69066399      22.15317243      35.26654827        1
C       36.81825623      28.64833513      39.30021627        2
C       30.03025385      23.49913439      34.11021627        2
H       35.87833904      28.37376541      39.26907627        3
H       30.97017104      23.77370411      34.07907627        3
C       29.50403220      29.03126620      37.91760027        4
C       37.34447788      23.11620332      32.72760027        4
H       30.48586820      29.06955930      37.92590427        5
H       36.36264188      23.07791022      32.73590427        5
C       37.70144730      22.24442409      37.50032427        6
C       29.14706278      29.90304544      32.31032427        6
H       36.74316098      22.14339546      37.31867427        7
H       30.10534910      30.00407406      32.12867427        7
C       30.05364110      23.29544765      38.55700827        8
C       36.79486898      28.85202187      33.36700827        8
H       31.00269609      23.48365420      38.70440427        9
H       35.84581399      28.66381532      33.51440427        9
C       37.11973072      24.59904278      38.24768427       10
C       29.72877936      27.54842674      33.05768427       10
H       36.20570373      24.41083623      37.99026027       11
H       30.64280635      27.73663329      32.80026027       11
H       37.10496950      25.15470020      39.04175427       12
H       29.74354058      26.99276932      33.85175427       12
O       29.83307791      27.58916409      39.83271027       13
O       37.01543217      24.55830543      34.64271027       13
O       36.88250495      28.02097998      36.97198227       14
O       29.96600513      24.12648955      31.78198227       14
O       30.53448387      22.70068238      36.28171227       15
O       36.31402621      29.44678714      31.09171227       15
O       37.25548250      22.80659948      39.78081027       16
O       29.59302758      29.34087004      34.59081027       16
O       29.99662956      25.28343022      37.19930427       17
O       36.85188052      26.86403930      32.00930427       17
C       33.72322409      25.70709863      32.61445827       18
C       33.12528599      26.44037089      37.80445827       18
H       34.68771465      25.76087193      32.77742427       19
H       32.16079543      26.38659759      37.96742427       19
C       33.40010130      24.58926581      31.62939627       20
C       33.44840878      27.55820371      36.81939627       20
H       32.42275918      24.49149618      31.58580027       21
H       34.42575090      27.65597334      36.77580027       21
C       33.90269716      24.95753144      30.24989427       22
C       32.94581292      27.18993809      35.43989427       22
H       34.87664503      25.05774531      30.27895827       23
H       31.97186505      27.08972421      35.46895827       23
C       33.25982030      26.28556897      29.84507427       24
C       33.58868978      25.86190055      35.03507427       24
H       32.29113413      26.18698459      29.75580627       25
H       34.55737595      25.96048493      34.94580627       25
C       33.59615293      27.35614646      30.89656827       26
C       33.25235715      24.79132306      36.08656827       26
H       34.55298838      27.56472168      30.87788427       27
H       32.29552170      24.58274784      36.06788427       27
C       32.75594372      28.64018766      30.62357427       28
C       34.09256636      23.50728186      35.81357427       28
H       31.86692966      28.39006035      30.33501027       29
H       34.98158042      23.75740918      35.52501027       29
H       32.67462135      29.15184875      31.44463227       30
H       34.17388873      22.99562078      36.63463227       30
O       33.95466067      23.35247994      32.07158427       31
O       32.89384941      28.79498958      37.26158427       31
O       33.56505485      23.89836040      39.75174627       32
O       33.28345523      28.24910912      34.56174627       32
O       33.83419491      26.77441714      38.99919627       33
O       33.01431517      25.37305238      33.80919627       33
O       33.20739762      26.94551400      32.19510627       34
O       33.64111246      25.20195552      37.38510627       34
O       33.36389021      29.44678714      29.63228427       35
O       33.48461987      22.70068238      34.82228427       35
C       29.21277666      29.80527580      40.28527827        0
C       37.63573342      22.34219372      45.47527827        0
H       30.15784609      29.99429709      40.45654827        1
H       36.69066399      22.15317243      45.64654827        1
C       36.81825623      28.64833513      49.68021627        2
C       30.03025385      23.49913439      44.49021627        2
H       35.87833904      28.37376541      49.64907627        3
H       30.97017104      23.77370411      44.45907627        3
C       29.50403220      29.03126620      48.29760027        4
C       37.34447788      23.11620332      43.10760027        4
H       30.48586820      29.06955930      48.30590427        5
H       36.36264188      23.07791022      43.11590427        5
C       37.70144730      22.24442409      47.88032427        6
C       29.14706278      29.90304544      42.69032427        6
H       36.74316098      22.14339546      47.69867427        7
H       30.10534910      30.00407406      42.50867427        7
C       30.05364110      23.29544765      48.93700827        8
C       36.79486898      28.85202187      43.74700827        8
H       31.00269609      23.48365420      49.08440427        9
H       35.84581399      28.66381532      43.89440427        9
C       37.11973072      24.59904278      48.62768427       10
C       29.72877936      27.54842674      43.43768427       10
H       36.20570373      24.41083623      48.37026027       11
H       30.64280635      27.73663329      43.18026027       11
H       37.10496950      25.15470020      49.42175427       12
H       29.74354058      26.99276932      44.23175427       12
O       29.83307791      27.58916409      50.21271027       13
O       37.01543217      24.55830543      45.02271027       13
O       36.88250495      28.02097998      47.35198227       14
O       29.96600513      24.12648955      42.16198227       14
O       30.53448387      22.70068238      46.66171227       15
O       36.31402621      29.44678714      41.47171227       15
O       37.25548250      22.80659948      50.16081027       16
O       29.59302758      29.34087004      44.97081027       16
O       29.99662956      25.28343022      47.57930427       17
O       36.85188052      26.86403930      42.38930427       17
C       33.72322409      25.70709863      42.99445827       18
C       33.12528599      26.44037089      48.18445827       18
H       34.68771465      25.76087193      43.15742427       19
H       32.16079543      26.38659759      48.34742427       19
C       33.40010130      24.58926581      42.00939627       20
C       33.44840878      27.55820371      47.19939627       20
H       32.42275918      24.49149618      41.96580027       21
H       34.42575090      27.65597334      47.15580027       21
C       33.90269716      24.95753144      40.62989427       22
C       32.94581292      27.18993809      45.81989427       22
H       34.87664503      25.05774531      40.65895827       23
H       31.97186505      27.08972421      45.84895827       23
C       33.25982030      26.28556897      40.22507427       24
C       33.58868978      25.86190055      45.41507427       24
H       32.29113413      26.18698459      40.13580627       25
H       34.55737595      25.96048493      45.32580627       25
C       33.59615293      27.35614646      41.27656827       26
C       33.25235715      24.79132306      46.46656827       26
H       34.55298838      27.56472168      41.25788427       27
H       32.29552170      24.58274784      46.44788427       27
C       32.75594372      28.64018766      41.00357427       28
C       34.09256636      23.50728186      46.19357427       28
H       31.86692966      28.39006035      40.71501027       29
H       34.98158042      23.75740918      45.90501027       29
H       32.67462135      29.15184875      41.82463227       30
H       34.17388873      22.99562078      47.01463227       30
O       33.95466067      23.35247994      42.45158427       31
O       32.89384941      28.79498958      47.64158427       31
O       33.56505485      23.89836040      50.13174627       32
O       33.28345523      28.24910912      44.94174627       32
O       33.83419491      26.77441714      49.37919627       33
O       33.01431517      25.37305238      44.18919627       33
O       33.20739762      26.94551400      42.57510627       34
O       33.64111246      25.20195552      47.76510627       34
O       33.36389021      29.44678714      40.01228427       35
O       33.48461987      22.70068238      45.20228427       35
C       29.21277666      29.80527580      50.66527827        0
C       37.63573342      22.34219372      55.85527827        0
H       30.15784609      29.99429709      50.83654827        1
H       36.69066399      22.15317243      56.02654827        1
C       36.81825623      28.64833513      60.06021627        2
C       30.03025385      23.49913439      54.87021627        2
H       35.87833904      28.37376541      60.02907627        3
H       30.97017104      23.77370411      54.83907627        3
C       29.50403220      29.03126620      58.67760027        4
C       37.34447788      23.11620332      53.48760027        4
H       30.48586820      29.06955930      58.68590427        5
H       36.36264188      23.07791022      53.49590427        5
C       37.70144730      22.24442409      58.26032427        6
C       29.14706278      29.90304544      53.07032427        6
H       36.74316098      22.14339546      58.07867427        7
H       30.10534910      30.00407406      52.88867427        7
C       30.05364110      23.29544765      59.31700827        8
C       36.79486898      28.85202187      54.12700827        8
H       31.00269609      23.48365420      59.46440427        9
H       35.84581399      28.66381532      54.27440427        9
C       37.11973072      24.59904278      59.00768427       10
C       29.72877936      27.54842674      53.81768427       10
H       36.20570373      24.41083623      58.75026027       11
H       30.64280635      27.73663329      53.56026027       11
H       37.10496950      25.15470020      59.80175427       12
H       29.74354058      26.99276932      54.61175427       12
O       29.83307791      27.58916409      60.59271027       13
O       37.01543217      24.55830543      55.40271027       13
O       36.88250495      28.02097998      57.73198227       14
O       29.96600513      24.12648955      52.54198227       14
O       30.53448387      22.70068238      57.04171227       15
O       36.31402621      29.44678714      51.85171227       15
O       37.25548250      22.80659948      60.54081027       16
O       29.59302758      29.34087004      55.35081027       16
O       29.99662956      25.28343022      57.95930427       17
O       36.85188052      26.86403930      52.76930427       17
C       33.72322409      25.70709863      53.37445827       18
C       33.12528599      26.44037089      58.56445827       18
H       34.68771465      25.76087193      53.53742427       19
H       32.16079543      26.38659759      58.72742427       19
C       33.40010130      24.58926581      52.38939627       20
C       33.44840878      27.55820371      57.57939627       20
H       32.42275918      24.49149618      52.34580027       21
H       34.42575090      27.65597334      57.53580027       21
C       33.90269716      24.95753144      51.00989427       22
C       32.94581292      27.18993809      56.19989427       22
H       34.87664503      25.05774531      51.03895827       23
H       31.97186505      27.08972421      56.22895827       23
C       33.25982030      26.28556897      50.60507427       24
C       33.58868978      25.86190055      55.79507427       24
H       32.29113413      26.18698459      50.51580627       25
H       34.55737595      25.96048493      55.70580627       25
C       33.59615293      27.35614646      51.65656827       26
C       33.25235715      24.79132306      56.84656827       26
H       34.55298838      27.56472168      51.63788427       27
H       32.29552170      24.58274784      56.82788427       27
C       32.75594372      28.64018766      51.38357427       28
C       34.09256636      23.50728186      56.57357427       28
H       31.86692966      28.39006035      51.09501027       29
H       34.98158042      23.75740918      56.28501027       29
H       32.67462135      29.15184875      52.20463227       30
H       34.17388873      22.99562078      57.39463227       30
O       33.95466067      23.35247994      52.83158427       31
O       32.89384941      28.79498958      58.02158427       31
O       33.56505485      23.89836040      60.51174627       32
O       33.28345523      28.24910912      55.32174627       32
O       33.83419491      26.77441714      59.75919627       33
O       33.01431517      25.37305238      54.56919627       33
O       33.20739762      26.94551400      52.95510627       34
O       33.64111246      25.20195552      58.14510627       34
O       33.36389021      29.44678714      50.39228427       35
O       33.48461987      22.70068238      55.58228427       35
C       29.21277666      29.80527580      61.04527827        0
C       37.63573342      22.34219372      66.23527827        0
H       30.15784609      29.99429709      61.21654827        1
H       36.69066399      22.15317243      66.40654827        1
C       36.81825623      28.64833513      70.44021627        2
C       30.03025385      23.49913439      65.25021627        2
H       35.87833904      28.37376541      70.40907627        3
H       30.97017104      23.77370411      65.21907627        3
C       29.50403220      29.03126620      69.05760027        4
C       37.34447788      23.11620332      63.86760027        4
H       30.48586820      29.06955930      69.06590427        5
H       36.36264188      23.07791022      63.87590427        5
C       37.70144730      22.24442409      68.64032427        6
C       29.14706278      29.90304544      63.45032427        6
H       36.74316098      22.14339546      68.45867427        7
H       30.10534910      30.00407406      63.26867427        7
C       30.05364110      23.29544765      69.69700827        8
C       36.79486898      28.85202187      64.50700827        8
H       31.00269609      23.48365420      69.84440427        9
H       35.84581399      28.66381532      64.65440427        9
C       37.11973072      24.59904278      69.38768427       10
C       29.72877936      27.54842674      64.19768427       10
H       36.20570373      24.41083623      69.13026027       11
H       30.64280635      27.73663329      63.94026027       11
H       37.10496950      25.15470020      70.18175427       12
H       29.74354058      26.99276932      64.99175427       12
O       29.83307791      27.58916409      70.97271027       13
O       37.01543217      24.55830543      65.78271027       13
O       36.88250495      28.02097998      68.11198227       14
O       29.96600513      24.12648955      62.92198227       14
O       30.53448387      22.70068238      67.42171227       15
O       36.31402621      29.44678714      62.23171227       15
O       37.25548250      22.80659948      70.92081027       16
O       29.59302758      29.34087004      65.73081027       16
O       29.99662956      25.28343022      68.33930427       17
O       36.85188052      26.86403930      63.14930427       17
C       33.72322409      25.70709863      63.75445827       18
C       33.12528599      26.44037089      68.94445827       18
H       34.68771465      25.76087193      63.91742427       19
H       32.16079543      26.38659759      69.10742427       19
C       33.40010130      24.58926581      62.76939627       20
C       33.44840878      27.55820371      67.95939627       20
H       32.42275918      24.49149618      62.72580027       21
H       34.42575090      27.65597334      67.91580027       21
C       33.90269716      24.95753144      61.38989427       22
C       32.94581292      27.18993809      66.57989427       22
H       34.87664503      25.05774531      61.41895827       23
H       31.97186505      27.08972421      66.60895827       23
C       33.25982030      26.28556897      60.98507427       24
C       33.58868978      25.86190055      66.17507427       24
H       32.29113413      26.18698459      60.89580627       25
H       34.55737595      25.96048493      66.08580627       25
C       33.59615293      27.35614646      62.03656827       26
C       33.25235715      24.79132306      67.22656827       26
H       34.55298838      27.56472168      62.01788427       27
H       32.29552170      24.58274784      67.20788427       27
C       32.75594372      28.64018766      61.76357427       28
C       34.09256636      23.50728186      66.95357427       28
H       31.86692966      28.39006035      61.47501027       29
H       34.98158042      23.75740918      66.66501027       29
H       32.67462135      29.15184875      62.58463227       30
H       34.17388873      22.99562078      67.77463227       30
O       33.95466067      23.35247994      63.21158427       31
O       32.89384941      28.79498958      68.40158427       31
O       33.56505485      23.89836040      70.89174627       32
O       33.28345523      28.24910912      65.70174627       32
O       33.83419491      26.77441714      70.13919627       33
O       33.01431517      25.37305238      64.94919627       33
O       33.20739762      26.94551400      63.33510627       34
O       33.64111246      25.20195552      68.52510627       34
O       33.36389021      29.44678714      60.77228427       35
O       33.48461987      22.70068238      65.96228427       35
C       41.69026706      21.24906610      42.36905868        0
C       42.20303200      20.48139887      43.61564918        0
C       41.05850571      19.51415475      44.01726445        0
C       43.44570965      19.60153288      43.33671639        0
C       43.99179500      19.43157058      42.05425344        0
C       45.12477030      18.63157216      41.84458276        0
C       45.73738719      17.98117993      42.91389398        0
O       46.84214750      17.17922488      42.84371156        0
C       47.55556228      17.17176426      41.60866788        0
C       48.77587462      16.32959002      41.78869891        0
C       50.05609447      16.90928817      42.33004428        0
O       49.87122246      16.66699331      40.92521085        0
C       45.19969983      18.12640171      44.19049461        0
C       44.07340254      18.92670835      44.40166148        0
C       42.51734822      21.55266023      44.68802646        0
C       41.74241490      21.72963240      45.84600087        0
C       42.05338284      22.72309761      46.78743359        0
C       43.14570837      23.56424395      46.59122807        0
O       43.55419945      24.57009872      47.42290888        0
C       42.77176771      24.80021274      48.59664661        0
C       43.35855737      25.97136269      49.31754712        0
C       44.40004144      25.79363493      50.38939752        0
O       43.02460539      26.05004649      50.70965817        0
C       43.92636658      23.40118400      45.44837222        0
C       43.61754685      22.41267805      44.50934115        0
H       41.37069169      20.56388366      41.57460551        0
H       40.82568554      21.87624004      42.62053409        0
H       42.45372853      21.91158407      41.94506795        0
H       41.27217099      18.97906760      44.94976340        0
H       40.89364983      18.75636131      43.24105955        0
H       40.10836016      20.04525937      44.15332577        0
H       43.55463445      19.91661928      41.18496633        0
H       45.49602961      18.53823722      40.82923790        0
H       46.93959037      16.72722153      40.81874886        0
H       47.83524772      18.19464622      41.32669348        0
H       48.55619782      15.28425645      41.95933216        0
H       50.05018937      17.93534600      42.68183714        0
H       50.73012701      16.25185633      42.86631494        0
H       45.66353320      17.62024520      45.03338737        0
H       43.69380920      19.02703032      45.41632023        0
H       40.87662832      21.10499903      46.04594562        0
H       41.41531344      22.80793554      47.66117632        0
H       41.73667599      25.04347487      48.32192657        0
H       42.78533568      23.90949326      49.23887159        0
H       43.34566096      26.88460750      48.73730834        0
H       45.10790698      26.59693554      50.55295388        0
H       44.78704875      24.80076242      50.58167598        0
H       44.78473504      24.04907779      45.28238197        0
H       44.25485204      22.31662646      43.63180847        0
C       13.29414811       6.62967838      48.76807770        0
C       13.51477219       7.73877464      49.82989653        0
C       13.27119864       9.08293966      49.09458110        0
C       12.50423569       7.68822002      51.00142357        0
C       11.42542921       6.79036699      51.04436677        0
C       10.53607168       6.77082387      52.12891901        0
C       10.70462905       7.65098081      53.19599360        0
O        9.91318963       7.73111164      54.30763900        0
C        8.95737429       6.68908990      54.49460680        0
C        8.28981369       6.90973669      55.81237334        0
C        8.87724265       6.36932863      57.08946142        0
O        7.77539842       5.72172520      56.43144129        0
C       11.76044023       8.55875229      53.16252807        0
C       12.65001331       8.57648606      52.08457956        0
C       14.96393558       7.56559407      50.34596104        0
C       15.99807714       8.46753500      50.04629568        0
C       17.30287464       8.26619054      50.52267121        0
C       17.60404728       7.15649968      51.30821565        0
O       18.82801951       6.84071637      51.83020666        0
C       19.91209760       7.71933586      51.52099048        0
C       21.15164420       7.15394822      52.13700419        0
C       21.59461219       7.55172481      53.51928225        0
O       22.20723252       8.10195351      52.34366207        0
C       16.58928537       6.25243343      51.61653010        0
C       15.28934502       6.45110284      51.14221107        0
H       12.31150766       6.71734341      48.28902467        0
H       14.04706805       6.69071872      47.97216698        0
H       13.36272274       5.62325088      49.19699822        0
H       13.49032730       9.95062600      49.72753327        0
H       12.22526710       9.17251195      48.77532193        0
H       13.88985228       9.16924519      48.19281594        0
H       11.24779108       6.08135630      50.23951263        0
H        9.72085183       6.05522696      52.10049860        0
H        8.19558113       6.72897897      53.70778297        0
H        9.45488414       5.71123530      54.47713258        0
H        7.69120134       7.81007378      55.84631825        0
H        9.85242082       5.89601685      57.04957070        0
H        8.66833730       6.89609548      58.01304029        0
H       11.90089937       9.25536837      53.98520740        0
H       13.47104692       9.29007871      52.10400394        0
H       15.81974392       9.34643680      49.43354774        0
H       18.05649294       9.00009109      50.25582699        0
H       20.05792569       7.77532961      50.43394803        0
H       19.70958487       8.72221714      51.92003425        0
H       21.41239601       6.17445492      51.75824195        0
H       22.17264190       6.83992083      54.09576549        0
H       20.95527121       8.19930059      54.10616402        0
H       16.80853479       5.38189034      52.23150973        0
H       14.52523350       5.72272465      51.40875602        0
C       50.04225494      47.73761773      76.12684307        0
C       50.49182328      46.26242967      76.29398737        0
C       50.89273303      46.10862730      77.78476322        0
C       49.36378771      45.23498195      76.03302315        0
C       48.03441753      45.60601056      75.77433358        0
C       47.04251210      44.64361152      75.53453367        0
C       47.35754622      43.28631082      75.54951065        0
O       46.48820435      42.25448948      75.33009726        0
C       45.19385028      42.59605371      74.83782634        0
C       44.45759825      41.32595940      74.56282780        0
C       44.58668784      40.61481237      73.24158846        0
O       43.44223925      41.42672445      73.55380252        0
C       48.66815292      42.90002686      75.81969770        0
C       49.65852123      43.85796913      76.05452730        0
C       51.66691019      46.05091810      75.30868425        0
C       52.99798275      45.88675771      75.72586853        0
C       54.03704286      45.71170892      74.79867828        0
C       53.76895455      45.69902240      73.43223525        0
O       54.68390155      45.54269981      72.42787627        0
C       56.05329133      45.40350788      72.81285601        0
C       56.87350534      45.30853165      71.56632469        0
C       57.20714440      43.97943885      70.94396080        0
O       58.16077384      44.70090068      71.73782590        0
C       52.45338955      45.85879980      73.00107958        0
C       51.41742742      46.03402681      73.92323517        0
H       49.25483911      48.00454901      76.84202363        0
H       50.87924979      48.42640938      76.29741247        0
H       49.65761448      47.94415373      75.12137492        0
H       51.31843239      45.12235614      78.00287939        0
H       50.02280000      46.23675356      78.44105783        0
H       51.63357830      46.86003893      78.08458017        0
H       47.73371750      46.65052669      75.74969197        0
H       46.03368100      44.99497577      75.34407881        0
H       44.63906572      43.16294845      75.59403804        0
H       45.28258670      43.19258979      73.92115215        0
H       44.24478753      40.75021225      75.45351445        0
H       45.30485444      40.99073023      72.52081786        0
H       44.44708940      39.54045454      73.22183444        0
H       48.92741507      41.84449080      75.84045290        0
H       50.67333780      43.51565536      76.24598643        0
H       53.26375576      45.89400415      76.77897981        0
H       55.04361503      45.58989880      75.18562938        0
H       56.38074929      46.28594042      73.37867091        0
H       56.18236923      44.50133000      73.42558122        0
H       56.80314866      46.18581015      70.93680755        0
H       57.37482672      43.94313610      69.87453061        0
H       56.77386967      43.08161726      71.36672657        0
H       52.22774847      45.84848678      71.93661010        0
H       50.40340532      46.15215852      73.54474940        0
C       10.55910232      25.59997279      72.59287981        0
C        9.83841002      26.22660465      73.81523976        0
C       10.66808736      25.80614006      75.05686831        0
C        9.82086071      27.77440942      73.80082454        0
C       10.48647264      28.53907167      72.82919704        0
C       10.43915944      29.94087518      72.84653735        0
C        9.72541719      30.61088649      73.83819901        0
O        9.59969662      31.96614077      73.96482037        0
C       10.06141852      32.76080368      72.87409906        0
C        9.72598216      34.18580304      73.17022421        0
C        8.38551229      34.76796788      72.80650420        0
O        9.55759572      35.01633477      72.01216439        0
C        9.07201234      29.86830898      74.81878404        0
C        9.11462343      28.47135837      74.80031723        0
C        8.39768478      25.66033790      73.80880518        0
C        7.93371481      24.73244655      74.75563938        0
C        6.62320305      24.23238693      74.70594977        0
C        5.74687037      24.64733147      73.70641943        0
O        4.45264715      24.23741522      73.54132355        0
C        3.95473697      23.26988154      74.46802534        0
C        2.55637818      22.92572614      74.06582938        0
C        1.37174106      23.66160674      74.63173939        0
O        1.75120614      22.36259978      75.10999169        0
C        6.19045495      25.56895748      72.75986065        0
C        7.49566363      26.06741048      72.80748312        0
H       11.61670972      25.88770453      72.55498174        0
H       10.52478766      24.50398599      72.63439689        0
H       10.10234867      25.89868940      71.64223997        0
H       10.19877230      26.11725062      75.99733575        0
H       11.66874476      26.25555068      75.03162395        0
H       10.80633850      24.71886154      75.10240294        0
H       11.05690733      28.06806312      72.03245562        0
H       10.97730704      30.47384524      72.06948514        0
H       11.14935810      32.67274011      72.77589531        0
H        9.57974827      32.44055483      71.94165311        0
H       10.26272151      34.58690754      74.01941320        0
H        7.62466257      34.10423745      72.41007337        0
H        8.00338397      35.58743517      73.40364236        0
H        8.51614165      30.37752737      75.60205182        0
H        8.57776574      27.92784112      75.57495315        0
H        8.57668824      24.37110020      75.55297566        0
H        6.32630099      23.51814096      75.46717132        0
H        4.56330283      22.35659201      74.42787231        0
H        3.96990205      23.68103196      75.48623138        0
H        2.48738856      22.49080675      73.07742409        0
H        0.47486306      23.72801703      74.02815369        0
H        1.54604888      24.51010711      75.28151274        0
H        5.51651655      25.90476473      71.97426784        0
H        7.80128224      26.78824228      72.05088138        0
C       10.45902601      15.19204217      64.55710592        0
C       10.33140796      14.82306215      66.05837075        0
C       10.13817650      13.28434603      66.10092361        0
C       11.60379964      15.13017196      66.88475951        0
C       12.79617669      15.59861362      66.30977517        0
C       13.92550903      15.87308404      67.09518383        0
C       13.88858851      15.68362396      68.47521200        0
O       14.91455856      15.91487797      69.34840146        0
C       16.05251964      16.60614664      68.83699026        0
C       16.98974066      16.85119727      69.97382700        0
C       16.85670672      18.06754239      70.85182138        0
O       17.84575526      17.99141800      69.81142267        0
C       12.71878579      15.20484951      69.06022726        0
C       11.59127492      14.93504993      68.27948711        0
C        9.11856399      15.61766238      66.60059636        0
C        7.90138615      15.01290828      66.95485062        0
C        6.82031270      15.77187382      67.42942544        0
C        6.93100391      17.15399704      67.55858311        0
O        5.95846581      18.00742936      68.00144275        0
C        4.69543436      17.43177662      68.34230584        0
C        3.77593385      18.54266749      68.73734015        0
C        3.64400430      18.98207073      70.17074829        0
O        2.66155595      18.14268367      69.54595816        0
C        8.13238208      17.77003687      67.21315480        0
C        9.20983991      17.01564169      66.73958799        0
H       11.25315002      14.61764892      64.06496904        0
H        9.52687631      14.97972148      64.01849186        0
H       10.68029708      16.25511061      64.40711860        0
H        9.94289572      12.91608707      67.11471657        0
H       11.03350115      12.76544315      65.73615521        0
H        9.30175286      12.96348146      65.46783374        0
H       12.87986348      15.76510775      65.23864591        0
H       14.81724212      16.22962186      66.59004727        0
H       16.56540734      15.98964355      68.09007538        0
H       15.74565127      17.55674573      68.38288214        0
H       17.41042598      15.94478369      70.38799383        0
H       16.00236803      18.71953815      70.70487003        0
H       17.20274460      18.00054658      71.87646378        0
H       12.67719700      15.04662864      70.13495538        0
H       10.69203669      14.57760970      68.77677483        0
H        7.75896402      13.93958713      66.86866005        0
H        5.90740604      15.24429034      67.68635635        0
H        4.26547223      16.91643051      67.47304559        0
H        4.81656396      16.72205433      69.17154652        0
H        3.60065839      19.25869643      67.94522871        0
H        3.36821083      20.01092499      70.36699569        0
H        4.29067831      18.53500761      70.91538832        0
H        8.23505576      18.84891617      67.31109919        0
H       10.13167597      17.53550850      66.48384558        0
C       34.94343688      38.70443141      12.47054627        0
C       35.46627826      40.02108947      13.10243010        0
C       35.42544075      41.07968149      11.96906711        0
C       34.57052540      40.56226194      14.24303281        0
C       33.34583017      39.97504023      14.59954348        0
C       32.56697046      40.49144086      15.64563155        0
C       32.99495667      41.60932045      16.35901015        0
O       32.33347034      42.20570429      17.39598409        0
C       31.21345402      41.50522300      17.93379317        0
C       30.71814710      42.27095271      19.11665406        0
C       31.29792120      42.05490402      20.48969906        0
O       30.03854986      41.48003175      20.10246901        0
C       34.19992821      42.21359871      16.00858524        0
C       34.97921955      41.69758848      14.96932292        0
C       36.89343201      39.71890948      13.62041472        0
C       38.05303283      40.23743911      13.02108303        0
C       39.33021432      39.92714992      13.51352369        0
C       39.47719463      39.08898425      14.61582761        0
O       40.65713916      38.70465633      15.19056643        0
C       41.86018167      39.18801965      14.58901778        0
C       43.01504693      38.59982737      15.33462352        0
C       43.64486181      39.31458645      16.49978110        0
O       44.24841471      39.31794872      15.19753279        0
C       38.33686756      38.56714741      15.22367280        0
C       37.06409124      38.87459320      14.73396829        0
H       33.95875610      38.84063052      12.00728308        0
H       35.62203947      38.34737116      11.68562923        0
H       34.85227629      37.89710469      13.20640286        0
H       35.86280830      42.03679125      12.27594812        0
H       34.39313036      41.28204050      11.65712400        0
H       35.96857681      40.74061297      11.07833869        0
H       32.96490730      39.10086140      14.07728798        0
H       31.62902899      39.99398282      15.86984433        0
H       30.40863534      41.45230127      17.19185120        0
H       31.50829605      40.49099613      18.23117012        0
H       30.31089481      43.24024014      18.86224623        0
H       32.15549889      41.39843574      20.59068264        0
H       31.27604883      42.88048384      21.19117056        0
H       34.54366043      43.08989011      16.55242856        0
H       35.92167350      42.18909300      14.73717675        0
H       37.99626444      40.89154392      12.15583427        0
H       40.18593132      40.36033440      13.00572843        0
H       41.91935957      38.86195581      13.54200165        0
H       41.89151437      40.28466149      14.63814160        0
H       43.04691912      37.51892899      15.29586379        0
H       44.12148297      38.71861937      17.26839783        0
H       43.19666315      40.23546898      16.85139854        0
H       38.43543292      37.91281114      16.08752721        0
H       36.19916666      38.44863667      15.23984763        0
C       42.60858572       8.18658371      53.31391717        0
C       43.66247112       7.21212457      52.72571341        0
C       43.03615660       5.79680660      52.83249164        0
C       43.96048018       7.44981577      51.22541048        0
C       43.26522655       8.38801016      50.44552505        0
C       43.57146159       8.57920444      49.09007046        0
C       44.58030883       7.83440827      48.48241768        0
O       44.97539112       7.92632786      47.17703897        0
C       44.45794045       9.02068365      46.42273172        0
C       45.10165740       8.99435384      45.07522809        0
C       46.42541204       9.66751817      44.82504605        0
O       45.18362833      10.27031509      44.42373507        0
C       45.26966608       6.88848758      49.23735270        0
C       44.96862026       6.69990968      50.58918018        0
C       44.94369124       7.39128064      53.57587032        0
C       45.40997478       6.41848440      54.47531050        0
C       46.56935539       6.62628740      55.23860879        0
C       47.28815215       7.81322211      55.12149328        0
O       48.42523261       8.14341155      55.80583581        0
C       48.91286150       7.19054947      56.75298104        0
C       50.11462399       7.77937882      57.41980840        0
C       51.50323837       7.54154154      56.89035297        0
O       50.99571862       6.82381682      58.02500403        0
C       46.84039123       8.78844529      54.23234469        0
C       45.68540405       8.58336019      53.47192527        0
H       41.63603320       8.07834980      52.81875431        0
H       42.44883256       7.99600723      54.38267709        0
H       42.91210583       9.23548573      53.21773135        0
H       43.73365675       5.00770985      52.52860800        0
H       42.15061483       5.70931066      52.19055500        0
H       42.71274667       5.57318464      53.85658177        0
H       42.46992914       8.99653149      50.86889898        0
H       42.99541200       9.31729755      48.54156749        0
H       43.37513674       8.91229921      46.29311447        0
H       44.67551291       9.96804766      46.93183354        0
H       44.82921535       8.12991297      44.48479333        0
H       46.95621225      10.09298513      45.66992283        0
H       47.06337354       9.26992587      44.04463066        0
H       46.05525511       6.29597132      48.77520731        0
H       45.54100815       5.96244008      51.14792760        0
H       44.88498801       5.47720190      54.60987382        0
H       46.87681175       5.83532039      55.91506882        0
H       48.15159009       6.99240244      57.51931388        0
H       49.17810529       6.25471626      56.24319663        0
H       49.90279656       8.69227206      57.96074696        0
H       52.25733292       8.29676851      57.07498717        0
H       51.62163116       6.99888062      55.96081342        0
H       47.39284685       9.72010025      54.12781064        0
H       45.37169554       9.36923170      52.78676810        0
C       34.33492679      55.74522009      12.98911175        0
C       33.97217287      55.42898322      14.46377528        0
C       34.45425692      56.65074741      15.28941664        0
C       32.45037520      55.29973602      14.71604981        0
C       31.48583849      55.55028987      13.72675749        0
C       30.11552194      55.41375838      13.99356079        0
C       29.67788622      55.02450535      15.25795513        0
O       28.37768649      54.85370704      15.64378074        0
C       27.39209163      54.87084330      14.61292752        0
C       26.07172115      54.55411048      15.23512759        0
C       25.61181715      53.13174510      15.41797351        0
O       25.11785664      53.95360532      14.34699723        0
C       30.62045019      54.78686696      16.25545572        0
C       31.98640997      54.91826256      15.98990570        0
C       34.70224947      54.11091978      14.81886057        0
C       35.79954373      54.05322944      15.69371064        0
C       36.44289493      52.83870326      15.97830713        0
C       36.00481566      51.65374187      15.39251546        0
O       36.54185890      50.40996908      15.57937250        0
C       37.67949683      50.31643448      16.43951398        0
C       38.13220665      48.89145224      16.44906856        0
C       37.62879513      47.91335651      17.47622244        0
O       38.92531011      48.51960649      17.58414824        0
C       34.91618359      51.69278213      14.52332539        0
C       34.27477193      52.90174553      14.23820861        0
H       33.91901011      56.70756954      12.66715508        0
H       35.42240755      55.80315145      12.85450940        0
H       33.96707132      54.97932069      12.29654256        0
H       34.33301949      56.49949954      16.36828224        0
H       33.88796641      57.55243964      15.02448532        0
H       35.51286326      56.87175286      15.10537702        0
H       31.77163540      55.85550080      12.72315991        0
H       29.42068718      55.62510065      13.18732933        0
H       27.33382388      55.86793461      14.16190038        0
H       27.63835236      54.13070905      13.84119056        0
H       25.72797157      55.31279523      15.92529393        0
H       26.30249350      52.33072893      15.17729316        0
H       24.93346357      52.91317345      16.23417542        0
H       30.29348806      54.48822312      17.24828583        0
H       32.69113114      54.70806792      16.79170011        0
H       36.18561748      54.94783626      16.17366570        0
H       37.28466515      52.86171515      16.66288711        0
H       38.49851450      50.93934852      16.05578154        0
H       37.41190706      50.63979279      17.45433087        0
H       38.43372870      48.52899975      15.47512190        0
H       37.58978180      46.86472151      17.20797115        0
H       36.86179754      48.23371177      18.17021718        0
H       34.56056293      50.77472061      14.05984669        0
H       33.42610082      52.88800729      13.55628778        0
C       51.23697794      47.51327846      19.31617183        0
C       51.44594080      47.26781786      20.83350908        0
C       51.90725843      45.79235164      20.96382379        0
C       52.56630686      48.13613366      21.45562078        0
C       53.38656847      48.98687275      20.69718722        0
C       54.38617896      49.76419238      21.30063182        0
C       54.58957431      49.70721817      22.67799171        0
O       55.52352306      50.41199983      23.38479816        0
C       56.21047452      51.44994759      22.68829880        0
C       57.08886535      52.15662487      23.66802712        0
C       56.57074137      53.29451990      24.50755679        0
O       57.37680583      53.52352939      23.33954302        0
C       53.79513005      48.85706764      23.44350371        0
C       52.79578943      48.08517574      22.84423002        0
C       50.08525321      47.55657633      21.51287382        0
C       49.27303080      46.55082354      22.06196542        0
C       48.03837224      46.85357376      22.65688583        0
C       47.58641455      48.16948675      22.71438458        0
O       46.40753598      48.59884611      23.25862495        0
C       45.54034946      47.59995016      23.79992579        0
C       44.29832309      48.28064255      24.27913369        0
C       44.16394291      48.76358554      25.69823465        0
O       43.54747239      47.54565078      25.25468408        0
C       48.38073112      49.18001925      22.17584902        0
C       49.61036006      48.88007827      21.58226576        0
H       52.13430118      47.26193898      18.73789966        0
H       50.41870482      46.89500903      18.92596641        0
H       50.98376663      48.55645550      19.09427702        0
H       51.99852267      45.47432496      22.00883827        0
H       52.88805278      45.64420517      20.49476360        0
H       51.20922326      45.10464987      20.47069647        0
H       53.27050888      49.07088185      19.61945148        0
H       54.98841447      50.39898200      20.65889622        0
H       56.84127847      51.02334711      21.90019341        0
H       55.49055390      52.15005543      22.24604965        0
H       57.88902259      51.53865393      24.05267785        0
H       55.51344198      53.53199749      24.45949261        0
H       57.02938431      53.46914173      25.47361919        0
H       53.94629534      48.79782296      24.51841912        0
H       52.18622971      47.44581149      23.47931922        0
H       49.57455626      45.50760559      22.03938526        0
H       47.45853880      46.03098130      23.06295383        0
H       45.26258606      46.87576076      23.02245577        0
H       46.03666486      47.08027415      24.63036307        0
H       43.75471627      48.78785604      23.49294951        0
H       43.51499827      49.60893969      25.89153074        0
H       45.01820049      48.68603399      26.35912135        0
H       48.04232121      50.21346888      22.21554937        0
H       50.20157424      49.69933386      21.17639204        0
C       39.09331674      40.96575331      64.57073922        0
C       39.19325534      41.89844673      65.80618407        0
C       38.51369155      43.22889173      65.38796692        0
C       38.42001967      41.37850507      67.04230003        0
C       37.61737389      40.22662602      67.01506053        0
C       36.93893295      39.78369042      68.16010125        0
C       37.04662744      40.48441571      69.35973535        0
O       36.44131415      40.15805362      70.54110591        0
C       35.81425437      38.87894680      70.61203552        0
C       35.32439641      38.68488460      72.00960837        0
C       36.21720705      38.11871913      73.08218165        0
O       35.22235594      37.31527361      72.42553260        0
C       37.82628364      41.63783288      69.40061668        0
C       38.50639805      42.07800489      68.26161679        0
C       40.70182716      42.04278663      66.12204114        0
C       41.42113308      43.22944491      65.90481632        0
C       42.79248569      43.31441201      66.19142122        0
C       43.47677342      42.21337575      66.70001563        0
O       44.80622371      42.16023904      67.01630689        0
C       45.57759740      43.34001728      66.77983687        0
C       46.99831484      43.03887602      67.13548805        0
C       47.53665478      43.30450439      68.51562253        0
O       47.80483253      44.19005376      67.41834357        0
C       42.77786402      41.02853502      66.92320477        0
C       41.41213726      40.94201246      66.63755246        0
H       38.05784878      40.86135028      64.22481241        0
H       39.67551112      41.36237528      63.72941351        0
H       39.47452503      39.95899194      64.77733881        0
H       38.60586775      44.00443822      66.15709409        0
H       37.44187045      43.08222849      65.20463163        0
H       38.94487559      43.63061517      64.46273184        0
H       37.49903096      39.64156327      66.10635915        0
H       36.33220743      38.88830194      68.07273023        0
H       34.95437019      38.84112739      69.93366941        0
H       36.52975827      38.09108394      70.34492637        0
H       34.53394876      39.36898612      72.28762547        0
H       37.26105799      37.94281687      72.84549332        0
H       36.02933353      38.40583978      74.10998902        0
H       37.91488948      42.19802768      70.32805121        0
H       39.11779288      42.97458891      68.33921470        0
H       40.93819438      44.11632089      65.50487587        0
H       43.29020275      44.25989884      66.00145076        0
H       45.53548301      43.61523352      65.71750696        0
H       45.19690512      44.16796790      67.39269033        0
H       47.43204125      42.24555408      66.54102934        0
H       48.35486599      42.69096883      68.87230263        0
H       46.85520884      43.64525212      69.28507942        0
H       43.29820894      40.16035633      67.32273257        0
H       40.90296921      39.99894744      66.82944739        0
C       35.06708767      10.92324072       9.53484545        0
C       36.55978288      10.81915476       9.12587622        0
C       37.03365839      12.27578659       8.87998571        0
C       37.47022124      10.24138583      10.23650688        0
C       37.00688038       9.94022207      11.52740705        0
C       37.86292657       9.40974996      12.50381708        0
C       39.20404774       9.16947192      12.21159034        0
O       40.13651929       8.65600068      13.06914320        0
C       39.65474686       8.12473117      14.30202489        0
C       40.81331737       7.51989036      15.02501369        0
C       41.23890821       6.09735846      14.77333325        0
O       40.46956499       6.46198604      15.93160746        0
C       39.68402549       9.47682113      10.94073863        0
C       38.83125050      10.00137395       9.96541977        0
C       36.60358239       9.92863656       7.86039308        0
C       36.89764075      10.42762071       6.58082674        0
C       36.91305051       9.58826951       5.45600593        0
C       36.63242496       8.23037639       5.58474759        0
O       36.60913153       7.30798077       4.57531930        0
C       36.87345093       7.78454498       3.25401920        0
C       36.73658542       6.63032284       2.31346037        0
C       37.91852824       5.77762216       1.93789116        0
O       37.41164744       6.79293167       1.05905298        0
C       36.34029969       7.71836362       6.84753856        0
C       36.32378032       8.55315039       7.96876608        0
H       34.92674452      11.59971520      10.38657622        0
H       34.45868156      11.31405056       8.70949830        0
H       34.64294450       9.95144360       9.81284643        0
H       38.05812621      12.32168261       8.49283632        0
H       37.01387643      12.85790937       9.80985890        0
H       36.38746128      12.79629108       8.16244427        0
H       35.97003602      10.10678443      11.80892513        0
H       37.44428830       9.20156194      13.48303607        0
H       39.23789073       8.92641195      14.92214632        0
H       38.88448436       7.36658889      14.11245438        0
H       41.55348254       8.24522411      15.33508198        0
H       40.74720070       5.54380945      13.98061956        0
H       42.28016485       5.83914421      14.92575607        0
H       40.72937309       9.30019263      10.70020846        0
H       39.24146084      10.21301326       8.98021711        0
H       37.11848085      11.47927953       6.42279344        0
H       37.14797476      10.03563773       4.49557443        0
H       36.13977024       8.55176888       2.97269632        0
H       37.88712367       8.20363158       3.20061302        0
H       35.74584312       6.19529539       2.30711527        0
H       37.73801319       4.74551592       1.66350605        0
H       38.86866446       5.95891081       2.42463245        0
H       36.12151756       6.65885469       6.96454596        0
H       36.09394568       8.11253258       8.93751754        0
C       23.65352681      40.82738781      11.95537262        0
C       22.99032716      41.89301779      12.86687012        0
C       23.36407145      43.26743999      12.25199187        0
C       21.44400669      41.82317558      12.88205130        0
C       20.70861283      40.94829224      12.06621884        0
C       19.30731271      40.90985527      12.11594683        0
C       18.60846969      41.74770324      12.98276009        0
O       17.25047018      41.80574062      13.12774903        0
C       16.49026429      40.77900384      12.49351893        0
C       15.05806887      40.96740318      12.87319352        0
C       14.49615441      40.36926965      14.13595083        0
O       14.26789323      39.76978026      12.84950195        0
C       19.32142065      42.63266573      13.78802312        0
C       20.71793552      42.66905602      13.74274956        0
C       23.56474866      41.66983783      14.28694733        0
C       24.46295265      42.55889045      14.89977727        0
C       24.97191149      42.31215145      16.18432019        0
C       24.59581802      41.16895222      16.88492567        0
O       25.01846970      40.80803293      18.13448742        0
C       25.95716414      41.67302554      18.77749029        0
C       26.32265658      41.05904291      20.09090281        0
C       25.57498871      41.39772232      21.35242114        0
O       26.85499557      41.97569440      21.05633197        0
C       23.70398346      40.27704349      16.29224934        0
C       23.19673018      40.52093010      15.01259844        0
H       23.36116645      40.95356070      10.90591321        0
H       24.74767890      40.90004948      11.99586611        0
H       23.38954342      39.80511998      12.25008070        0
H       23.02423799      44.10711053      12.86923736        0
H       22.91002783      43.39124332      11.26081099        0
H       24.44839508      43.37204942      12.12291627        0
H       21.20284236      40.27234287      11.37277000        0
H       18.79767073      40.21380661      11.45772849        0
H       16.57533292      40.86350185      11.40419111        0
H       16.84441845      39.79168558      12.81569665        0
H       14.62558720      41.87890948      12.48305028        0
H       15.17718418      39.87635130      14.82138334        0
H       13.65929406      40.86741963      14.61096034        0
H       18.78937257      43.29641635      14.46490124        0
H       21.23819233      43.36329339      14.39929759        0
H       24.79361131      43.46267441      14.39621935        0
H       25.66187154      43.03831171      16.60193582        0
H       26.86777980      41.76431152      18.17044137        0
H       25.51195697      42.66533475      18.92957980        0
H       26.79092657      40.08810213      19.99679283        0
H       25.53404235      40.65339183      22.13817663        0
H       24.70415067      42.03797560      21.28716522        0
H       23.39863221      39.38063255      16.82827505        0
H       22.49998291      39.80052864      14.58714293        0
C       51.78247494      33.69501612      27.63048756        0
C       52.59486865      34.81784771      28.32726184        0
C       52.64969848      35.99141141      27.31407954        0
C       51.92083472      35.37126798      29.60617531        0
C       50.64542849      34.96970772      30.03500618        0
C       50.07272278      35.48944190      31.20525267        0
C       50.76273231      36.42503613      31.97355359        0
O       50.31889987      37.00352942      33.12980230        0
C       49.14116451      36.45192750      33.71548478        0
C       48.90442001      37.15006609      35.01447877        0
C       49.55468466      36.67840051      36.28835282        0
O       48.18101953      36.38117482      35.98645483        0
C       52.02254570      36.84601396      31.55456180        0
C       52.59635757      36.32579497      30.39105852        0
C       53.98178993      34.21304626      28.65445169        0
C       55.15900948      34.58695558      27.98580268        0
C       56.39538146      34.00338339      28.30328902        0
C       56.48251337      33.03040648      29.29572179        0
O       57.61737425      32.38188780      29.69798544        0
C       58.83038446      32.71408064      29.01896680        0
C       59.91820325      31.85080447      29.57305739        0
C       60.77142560      32.30461695      30.72683611        0
O       61.24602352      32.35340917      29.37313222        0
C       55.32430370      32.64890991      29.97036688        0
C       54.09196024      33.22861523      29.65482869        0
H       50.80266382      34.05388989      27.29293902        0
H       52.31001365      33.31832423      26.74510946        0
H       51.60946700      32.83626468      28.28941534        0
H       53.28266533      36.81528399      27.66352529        0
H       51.64910106      36.40575650      27.13788260        0
H       53.03853338      35.66823910      26.34056609        0
H       50.06378431      34.24202599      29.47446090        0
H       49.08271975      35.14089340      31.48071230        0
H       48.27732837      36.62676383      33.06415454        0
H       49.26824316      35.37426657      33.87833116        0
H       48.66285574      38.19844209      34.90200499        0
H       50.28118891      35.87501067      36.23052455        0
H       49.74920758      37.40815295      37.06536306        0
H       52.57012179      37.57975578      32.14072507        0
H       53.58896174      36.66865350      30.10667680        0
H       55.14725618      35.33672755      27.20003236        0
H       57.26760335      34.33631801      27.74998990        0
H       58.73404799      32.50627773      27.94490923        0
H       59.06880778      33.77518726      29.17136514        0
H       59.74547779      30.79284939      29.42555675        0
H       61.19615791      31.54954958      31.37690680        0
H       60.53509754      33.24257580      31.21358425        0
H       55.37679022      31.89177199      30.75017639        0
H       53.21189689      32.90457843      30.20794355        0
C       44.54069559      47.76070552      54.27800783        0
C       43.87371630      46.36045045      54.30356354        0
C       42.36066408      46.61661464      54.53126800        0
C       43.99358954      45.58983662      52.96640232        0
C       44.55868102      46.14810780      51.80846774        0
C       44.65630670      45.41306128      50.61776704        0
C       44.18900018      44.10168194      50.55739448        0
O       44.22732870      43.28174098      49.46433431        0
C       44.99803142      43.72847591      48.35042478        0
C       44.99677113      42.64152659      47.32603696        0
C       46.00904985      41.52710082      47.36364806        0
O       46.13815497      42.63457606      46.45630475        0
C       43.61153508      43.53746516      51.69233930        0
C       43.51750986      44.26714667      52.88076342        0
C       44.55181022      45.57594032      55.45296388        0
C       43.89865822      45.25889809      56.65530418        0
C       44.55448920      44.55785239      57.67921355        0
C       45.87991361      44.15951835      57.52500926        0
O       46.63369442      43.47862929      58.44070916        0
C       46.01218925      43.16519858      59.68902990        0
C       47.02726711      42.48278119      60.54899228        0
C       47.16546969      40.98417494      60.56378641        0
O       46.48068854      41.68858758      61.61021639        0
C       46.54245344      44.46443068      56.33748884        0
C       45.89092330      45.16328422      55.31699622        0
H       44.07176915      48.41919780      53.53689033        0
H       44.45161668      48.25748302      55.25236162        0
H       45.60988188      47.70821916      54.04208949        0
H       41.79469735      45.68679197      54.66025202        0
H       41.91907340      47.14733717      53.67847631        0
H       42.18377503      47.23506627      55.41985633        0
H       44.93991003      47.16626009      51.79998090        0
H       45.10035648      45.90264030      49.75718454        0
H       44.54258228      44.62245702      47.90954437        0
H       46.02419484      43.95484110      48.66628624        0
H       44.02097432      42.45397228      46.89855613        0
H       46.68517733      41.47198567      48.21005323        0
H       45.73075094      40.56734245      46.94467754        0
H       43.23727955      42.51737501      51.65838492        0
H       43.07425105      43.78483165      53.74943012        0
H       42.86700387      45.55009470      56.83030420        0
H       43.99396607      44.34365850      58.58347633        0
H       45.68947806      44.08512369      60.19465594        0
H       45.14680697      42.50936575      59.52466744        0
H       47.89172993      43.09690372      60.76443837        0
H       48.13495456      40.56224355      60.79871013        0
H       46.56963268      40.39819719      59.87520103        0
H       47.57751171      44.15755786      56.20111076        0
H       46.44356768      45.37857656      54.40393499        0
C        7.94949536      45.08927962      68.25763973        0
C        8.25307849      44.45959797      69.64240217        0
C        7.13742782      43.40879817      69.88310903        0
C        9.59772125      43.69460352      69.69657538        0
C       10.41366208      43.49888967      68.57063388        0
C       11.63003243      42.80647918      68.66338726        0
C       12.05800235      42.29196777      69.88562118        0
O       13.21775359      41.60372240      70.10888824        0
C       14.17268291      41.58940396      69.04952325        0
C       15.39585657      40.88909249      69.54373058        0
C       16.47891377      41.62966260      70.28306178        0
O       16.61494486      41.27990107      68.89540050        0
C       11.25360401      42.46359808      71.00962857        0
C       10.04339623      43.15709026      70.91966486        0
C        8.24152607      45.62406796      70.66233591        0
C        7.22827145      45.79544594      71.61977529        0
C        7.24767751      46.87391683      72.51782523        0
C        8.28019682      47.80744623      72.47750692        0
O        8.41657154      48.90107416      73.28724863        0
C        7.38812239      49.12545923      74.25407635        0
C        7.70716911      50.39418933      74.97805491        0
C        8.51153152      50.39269956      76.25011560        0
O        7.08264488      50.52792761      76.26171055        0
C        9.29465099      47.65143481      71.53480948        0
C        9.27640496      46.57826024      70.63912179        0
H        7.86425480      44.32543388      67.47531437        0
H        7.00061514      45.64011872      68.27469405        0
H        8.72500192      45.79736121      67.94334423        0
H        7.19568196      42.95935956      70.88117556        0
H        7.20528694      42.58978465      69.15610531        0
H        6.13775016      43.84813316      69.77827247        0
H       10.12878280      43.87998473      67.59305932        0
H       12.21298360      42.68624201      67.75609403        0
H       13.77709992      41.03458528      68.19120977        0
H       14.41615766      42.61515174      68.74524944        0
H       15.23615285      39.83999509      69.75345719        0
H       16.31081654      42.67029998      70.53880564        0
H       17.07930649      41.08010238      70.99834833        0
H       11.57182432      42.06256348      71.96864426        0
H        9.45187083      43.28337161      71.82400920        0
H        6.39692651      45.10014275      71.69154026        0
H        6.43537481      46.94946042      73.23351643        0
H        6.41684021      49.24396355      73.75544815        0
H        7.34315040      48.28393442      74.95822955        0
H        7.73782900      51.26213365      74.33261546        0
H        9.09730372      51.27270061      76.48588084        0
H        8.93358916      49.45879669      76.59973578        0
H       10.10963236      48.37126000      71.49270743        0
H       10.08972618      46.49126286      69.92052075        0
C       39.51777985      37.80054392      34.07279926        0
C       39.28205979      36.55032566      33.18532021        0
C       39.99007462      35.37638423      33.91152469        0
C       37.79182963      36.15250974      33.05427827        0
C       36.76196992      36.79769521      33.75779251        0
C       35.42200706      36.41209285      33.60481328        0
C       35.08109788      35.37004132      32.74478681        0
O       33.81921476      34.90175167      32.50623156        0
C       32.73678297      35.67714604      33.01755750        0
C       31.46347114      35.05318433      32.54832450        0
C       30.86289576      35.40546562      31.21293141        0
O       30.35557687      35.95863589      32.43892961        0
C       36.09166233      34.70893004      32.05081448        0
C       37.42685898      35.09487405      32.19888495        0
C       39.88709487      36.87989983      31.79906553        0
C       41.05819899      36.27796640      31.31025390        0
C       41.58210203      36.61565300      30.05269152        0
C       40.94775624      37.56515032      29.25566011        0
O       41.35272443      37.98714833      28.01944808        0
C       42.55787704      37.41911444      27.50199579        0
C       42.83923834      38.06268572      26.18204743        0
C       42.33890546      37.46636828      24.89394339        0
O       43.70142707      37.31094507      25.31763734        0
C       39.78363501      38.17092968      29.72468935        0
C       39.26094014      37.83628244      30.97732429        0
H       39.18488816      37.63356364      35.10433207        0
H       40.58361337      38.05787819      34.11599889        0
H       38.99021750      38.68424630      33.69554647        0
H       39.96930282      34.45001794      33.32591438        0
H       39.50779870      35.16089298      34.87323976        0
H       41.04112523      35.60693935      34.12482803        0
H       36.97133787      37.61729256      34.44077635        0
H       34.67360924      36.94837745      34.17906899        0
H       32.74708989      35.66464889      34.11334456        0
H       32.80995870      36.71186390      32.65975132        0
H       31.28740303      34.06988779      32.96332307        0
H       31.42509563      36.05280029      30.54849413        0
H       30.25585508      34.66110105      30.71138810        0
H       35.84125838      33.89026393      31.38082368        0
H       38.18467171      34.56356488      31.62694228        0
H       41.59581631      35.53535001      31.89267957        0
H       42.48981312      36.11414403      29.73283887        0
H       43.39780312      37.62892842      28.17769151        0
H       42.44118757      36.33381381      27.38147895        0
H       42.98927361      39.13227257      26.24787182        0
H       42.14879322      38.13287727      24.06163379        0
H       41.69415380      36.59745767      24.93673521        0
H       39.27512075      38.91284140      29.11223871        0
H       38.34778784      38.33057270      31.30485662        0
C        6.98278970      50.04520795      69.36949580        0
C        7.17529739      50.03104999      67.83035024        0
C        8.51516486      49.29075157      67.57833865        0
C        6.08363685      49.23560503      67.07420213        0
C        5.07587059      48.50741466      67.72685329        0
C        4.09928666      47.80590931      67.00451931        0
C        4.10917534      47.81538855      65.61112477        0
O        3.21754573      47.17796601      64.79427598        0
C        2.05593259      46.62818711      65.41294173        0
C        1.17421688      46.08786705      64.33523006        0
C        0.17511516      46.96388494      63.62638874        0
O       -0.22222770      46.05137241      64.66363555        0
C        5.11075066      48.51993918      64.94752734        0
C        6.08197320      49.22300711      65.66589353        0
C        7.18826929      51.51188153      67.37939758        0
C        8.34583477      52.16600444      66.92672675        0
C        8.31786512      53.51500831      66.54023480        0
C        7.13149716      54.24177761      66.59970132        0
O        6.96788115      55.55614104      66.25914251        0
C        8.13070256      56.26348096      65.82287567        0
C        7.73554671      57.68230011      65.56516282        0
C        7.29174369      58.13967682      64.20171684        0
O        8.61500852      58.40271806      64.69153068        0
C        5.97314415      53.60760703      67.04487690        0
C        5.99946278      52.26426464      67.43092294        0
H        7.03383997      49.03500670      69.79334310        0
H        7.76449008      50.63972520      69.85896693        0
H        6.01978113      50.47778441      69.66456142        0
H        8.80460221      49.29982068      66.52113991        0
H        8.44723139      48.23947654      67.88514198        0
H        9.33863414      49.73822138      68.14845308        0
H        5.02028507      48.46691460      68.81189323        0
H        3.34954575      47.26003333      67.56788248        0
H        2.33619105      45.80414324      66.07883856        0
H        1.52943351      47.40225035      65.98534529        0
H        1.60317457      45.24496443      63.81024780        0
H        0.17304879      48.02629893      63.84515807        0
H       -0.09605104      46.71195446      62.60799657        0
H        5.13454003      48.53146348      63.86074067        0
H        6.83777801      49.77391156      65.11005959        0
H        9.29866085      51.64820220      66.86561659        0
H        9.24632058      53.96178317      66.19947230        0
H        8.89880674      56.25308720      66.60771346        0
H        8.52922063      55.80498643      64.90800720        0
H        7.35941757      58.19070263      66.44317946        0
H        6.60733798      58.97692903      64.14077651        0
H        7.18112687      57.40412706      63.41477849        0
H        5.03784669      54.16157432      67.09441896        0
H        5.07179196      51.80583557      67.76962198        0
C       47.06299462      48.70860262      31.56768415        0
C       47.48147523      48.70817621      33.06137170        0
C       48.64751989      47.69107177      33.17377651        0
C       48.03424578      50.06797835      33.55289814        0
C       48.23706070      51.16559708      32.70089648        0
C       48.73252713      52.38432117      33.18753485        0
C       49.03833510      52.53288052      34.53888514        0
O       49.52304723      53.66282274      35.13624395        0
C       49.52001679      54.85642537      34.35544129        0
C       49.97677024      55.97790724      35.22978992        0
C       49.00931599      56.74246388      36.09440141        0
O       49.49091594      57.27313417      34.84825056        0
C       48.85775813      51.44948838      35.39536612        0
C       48.36002679      50.23582881      34.91274649        0
C       46.22272128      48.30304357      33.86622864        0
C       46.09127578      47.06277301      34.51213617        0
C       44.92643650      46.72857097      35.22025213        0
C       43.86491128      47.62662236      35.29684678        0
O       42.67837696      47.42595750      35.94659416        0
C       42.49593805      46.16283011      36.59005154        0
C       41.12073699      46.14044722      37.17650945        0
C       40.86246666      46.58054614      38.59240100        0
O       40.93347666      45.19213902      38.23543974        0
C       43.97940643      48.86250912      34.66311966        0
C       45.13860441      49.19662494      33.95677722        0
H       47.91486178      48.91485642      30.90848695        0
H       46.65583620      47.73340417      31.27222138        0
H       46.29108637      49.45637728      31.35190114        0
H       48.96787438      47.53628727      34.21056972        0
H       49.52535906      48.03582363      32.61300298        0
H       48.37109608      46.71119890      32.76536445        0
H       48.01412930      51.10520094      31.63849562        0
H       48.86982738      53.19317126      32.47733753        0
H       50.21958195      54.76181040      33.51718817        0
H       48.51110003      55.05632158      33.97314625        0
H       51.00732465      55.88557301      35.54527032        0
H       47.98141031      56.40000091      36.14652429        0
H       49.38227175      57.19239291      37.00686542        0
H       49.09760630      51.54889576      36.45101522        0
H       48.21835039      49.41885801      35.61714304        0
H       46.88613282      46.32324949      34.47991203        0
H       44.88774037      45.75460285      35.69737383        0
H       42.57548324      45.34815675      35.85790244        0
H       43.24990145      46.02881462      37.37719653        0
H       40.33620122      46.24252312      36.43830649        0
H       39.88645118      46.98403993      38.83261489        0
H       41.68034135      46.99705408      39.16698226        0
H       43.15942999      49.57590631      34.71621040        0
H       45.18874444      50.17358948      33.47878802        0
C       29.37746565      46.40930376      52.67302201        0
C       29.58530562      46.51538433      54.20657285        0
C       28.93216853      45.24458598      54.81095676        0
C       31.07240809      46.49287181      54.63579870        0
C       32.12758656      46.28852843      53.73211193        0
C       33.46333766      46.28340373      54.16028833        0
C       33.77465289      46.48125413      55.50404204        0
O       35.02923791      46.50117464      56.04641868        0
C       36.12522954      46.53117074      55.13414033        0
C       37.38165205      46.66533520      55.93052792        0
C       37.90807078      48.01447305      56.34378087        0
O       38.46947479      47.29175604      55.23520203        0
C       32.73945755      46.67009361      56.41652027        0
C       31.40821006      46.67980565      55.99071100        0
C       28.90553701      47.83425619      54.64802533        0
C       27.71967509      47.87204947      55.39972254        0
C       27.12738905      49.09015502      55.76767071        0
C       27.70654076      50.29900914      55.39024013        0
O       27.23291097      51.54949375      55.67705854        0
C       26.01110049      51.62771309      56.41453604        0
C       25.65346094      53.07229860      56.55902997        0
C       26.09572749      53.87632482      57.75195982        0
O       24.75900957      53.36553293      57.64053753        0
C       28.88436322      50.27966911      54.64559557        0
C       29.47514748      49.06728383      54.27764326        0
H       29.76501679      45.46317286      52.27628575        0
H       28.31167342      46.45393876      52.41576167        0
H       29.87238822      47.22192265      52.12871163        0
H       28.93617982      45.25428037      55.90704769        0
H       29.46601510      44.33973522      54.49445187        0
H       27.89021854      45.13155457      54.48703473        0
H       31.94174718      46.13035018      52.67263799        0
H       34.23239491      46.11698378      53.41307657        0
H       36.17114807      45.59444532      54.56717589        0
H       36.01910143      47.37625397      54.44233677        0
H       37.59271849      45.80407450      56.55002518        0
H       37.30345429      48.89062282      56.13548242        0
H       38.49922691      48.07864011      57.24961735        0
H       32.96692619      46.81983147      57.46896533        0
H       30.62979848      46.84640536      56.73233620        0
H       27.22319071      46.95920732      55.71587699        0
H       26.21175593      49.05095708      56.34890724        0
H       25.20391744      51.12224042      55.86771311        0
H       26.13694363      51.16397888      57.40202391        0
H       25.49174648      53.57245102      55.61322055        0
H       26.23350469      54.94333842      57.62699746        0
H       26.75415233      53.41499330      58.47735037        0
H       29.35026031      51.21612833      54.34542970        0
H       30.39670979      49.09643997      53.69857485        0
C       15.55415396      16.55277629      41.59604246        0
C       15.56320052      15.72127112      40.28655935        0
C       16.01592567      16.69720100      39.16879496        0
C       16.58421016      14.55779601      40.29552575        0
C       17.49003956      14.34155660      41.34648779        0
C       18.39459663      13.26979132      41.32025791        0
C       18.41497616      12.38953726      40.24022390        0
O       19.24143299      11.31041687      40.09523734        0
C       20.00534630      10.92587443      41.23668939        0
C       20.74070936       9.67145441      40.89536489        0
C       20.10661650       8.31718641      41.07411628        0
O       21.05774080       8.83655375      42.01860638        0
C       17.53379855      12.59826897      39.18198794        0
C       16.62891216      13.66320807      39.20869149        0
C       14.12235149      15.18692371      40.09997006        0
C       13.25343879      15.65584319      39.10104526        0
C       11.94853347      15.15460880      38.97472842        0
C       11.48167529      14.17401866      39.84632767        0
O       10.23766117      13.60601181      39.83638714        0
C        9.31523592      14.08006632      38.85291566        0
C        8.01505344      13.37247841      39.06376326        0
C        7.69048657      12.09227188      38.34205203        0
O        7.14838847      13.35306949      37.92174602        0
C       12.33140567      13.69627344      40.84224587        0
C       13.63112502      14.19499889      40.96989984        0
H       16.52204801      17.03624137      41.77549122        0
H       14.79984557      17.34851502      41.55237359        0
H       15.32349693      15.94108464      42.47593011        0
H       15.97124378      16.24101075      38.17309451        0
H       17.05126473      17.02390611      39.32772641        0
H       15.39497377      17.60118306      39.14437078        0
H       17.51646712      14.99676043      42.21369665        0
H       19.07076901      13.15911624      42.16169240        0
H       20.73824714      11.70326010      41.48069672        0
H       19.34409017      10.75943142      42.09637425        0
H       21.48839267       9.80666798      40.12544097        0
H       19.06290373       8.27011361      41.36572487        0
H       20.43228095       7.50947858      40.42938887        0
H       17.54232829      11.92308050      38.33001859        0
H       15.94639597      13.78235683      38.36984513        0
H       13.56424044      16.42345840      38.39826480        0
H       11.32726890      15.55844161      38.18181872        0
H        9.14869340      15.15852581      38.97641110        0
H        9.70208808      13.87766218      37.84524697        0
H        7.57559342      13.55961124      40.03469871        0
H        7.01448889      11.39337227      38.81921305        0
H        8.45071746      11.63651542      37.72005803        0
H       11.98186839      12.92819810      41.52926807        0
H       14.26367341      13.79246929      41.75939327        0
C       55.17879128       8.61607602      31.10028690        0
C       54.26076837       9.06674795      29.93394328        0
C       52.86168857       8.47163203      30.24250315        0
C       54.07670997      10.60112620      29.84438149        0
C       54.60399805      11.49259243      30.79257074        0
C       54.42176432      12.87807322      30.67080812        0
C       53.70576959      13.40425075      29.59739079        0
O       53.46040536      14.72853919      29.36370442        0
C       54.17147953      15.66738142      30.16825274        0
C       53.84366482      17.03764565      29.67252673        0
C       54.61877727      17.67095191      28.54727498        0
O       54.85590079      18.02414305      29.92039911        0
C       53.16266348      12.53333114      28.65588082        0
C       53.34710942      11.15283332      28.77349548        0
C       54.90023707       8.51309566      28.63743352        0
C       54.33884945       7.46269854      27.89295025        0
C       54.95852949       6.98015521      26.72971410        0
C       56.15559635       7.53580040      26.28531767        0
O       56.86234843       7.15873091      25.17688552        0
C       56.33771863       6.07207532      24.41088593        0
C       57.29248646       5.79403683      23.29431761        0
C       57.13887264       6.44753628      21.94729096        0
O       56.72661305       5.09241988      22.17932471        0
C       56.72546750       8.58004136      27.01122606        0
C       56.10994231       9.06130839      28.17045157        0
H       54.76511503       8.90185322      32.07494715        0
H       55.29869488       7.52536866      31.10858264        0
H       56.18379596       9.04799959      31.02972313        0
H       52.14486928       8.64872193      29.43235830        0
H       52.43725364       8.91591567      31.15156280        0
H       52.90982904       7.38825675      30.40785691        0
H       55.17155553      11.13648281      31.64878690        0
H       54.85155311      13.51321810      31.43849467        0
H       53.85057967      15.58952798      31.21322825        0
H       55.25114070      15.48408638      30.09929113        0
H       52.80792766      17.31251625      29.82014306        0
H       55.36307453      17.07306729      28.03235427        0
H       54.11430962      18.39943339      27.92361657        0
H       52.59670977      12.92910960      27.81632152        0
H       52.92041455      10.50758308      28.00846502        0
H       53.40969534       6.98965270      28.19730437        0
H       54.47347919       6.16678211      26.19970768        0
H       56.25862127       5.17108199      25.03379606        0
H       55.34883593       6.33519396      24.01226608        0
H       58.27820033       5.50340283      23.63307935        0
H       58.02867107       6.60229667      21.34944136        0
H       56.36668346       7.19499806      21.81475321        0
H       57.65928906       9.02627487      26.67511824        0
H       56.58652859       9.88051213      28.70637896        0
C       49.52854715      43.23755694       3.64019258        0
C       49.58576357      44.33468476       4.73530242        0
C       49.92156644      45.65541897       3.99388889        0
C       48.23532824      44.56526974       5.45597599        0
C       47.04670739      43.91834656       5.08117143        0
C       45.84430268      44.14870928       5.76582333        0
C       45.80277743      45.03365654       6.84140689        0
O       44.70101186      45.34226367       7.58935547        0
C       43.54071779      44.53706473       7.39005277        0
C       42.50736896      44.96861938       8.37837540        0
C       42.46209891      44.39117680       9.76854744        0
O       41.55983627      43.95298830       8.73881234        0
C       46.96926897      45.69564066       7.21688095        0
C       48.16909339      45.46384681       6.53841156        0
C       50.67641518      43.89062748       5.74013117        0
C       51.91807471      44.53615869       5.85978305        0
C       52.88600155      44.09268938       6.77434434        0
C       52.63513035      42.99156709       7.58907876        0
O       53.48847733      42.45603353       8.51390549        0
C       54.77382481      43.06775364       8.64232880        0
C       55.55326404      42.29075595       9.65443597        0
C       55.54232221      42.66536122      11.11206784        0
O       56.64159868      43.00587167      10.25429050        0
C       51.40746654      42.34038412       7.48449580        0
C       50.44262332      42.78033968       6.57355691        0
H       48.82916158      43.50218165       2.83795021        0
H       50.51200230      43.09299531       3.17542796        0
H       49.21780454      42.26560323       4.04058817        0
H       50.07990921      46.49257792       4.68353943        0
H       49.10750717      45.94441035       3.31734332        0
H       50.82692015      45.55765756       3.38222009        0
H       47.02243742      43.21742850       4.25040881        0
H       44.96002711      43.62012192       5.42505629        0
H       43.14238964      44.69090944       6.38075689        0
H       43.78636295      43.47710725       7.53207252        0
H       42.14727343      45.97513260       8.21297215        0
H       43.25845256      43.72188706      10.07589070        0
H       42.05340297      45.00235292      10.56450855        0
H       46.95069536      46.39330637       8.05038056        0
H       49.06145515      45.98873785       6.87287810        0
H       52.16797658      45.39615631       5.24522278        0
H       53.82494662      44.63510203       6.81824259        0
H       55.31061049      43.02917665       7.68502249        0
H       54.66344980      44.11206027       8.96366853        0
H       55.71421280      41.25819489       9.37377138        0
H       55.70426948      41.88230344      11.84262225        0
H       54.89091625      43.46557903      11.44049322        0
H       51.19568370      41.48006838       8.11625556        0
H       49.49546525      42.24550592       6.52568364        0
C       36.12978462      52.01153501      69.37593709        0
C       35.75062353      53.24734779      70.23339401        0
C       35.76162132      54.45630942      69.26123803        0
C       34.32452178      53.17584886      70.83117080        0
C       33.42183753      52.14103526      70.53769241        0
C       32.14029627      52.10833896      71.10705631        0
C       31.73115333      53.11195567      71.98289394        0
O       30.51592250      53.19436175      72.60335835        0
C       29.66813452      52.05082026      72.51437732        0
C       28.45717087      52.31128400      73.34897694        0
C       28.43836142      52.00033814      74.82241730        0
O       27.81501592      51.13390402      73.85951870        0
C       32.60833308      54.15420598      72.27302532        0
C       33.88719697      54.18585509      71.70987951        0
C       36.81300431      53.34150916      71.35538747        0
C       37.79299098      54.34660659      71.40176424        0
C       38.74786543      54.38795452      72.42961388        0
C       38.74597112      53.42332920      73.43395109        0
O       39.61768044      53.34524779      74.48482115        0
C       40.64816086      54.33361402      74.54849572        0
C       41.51096599      54.02222593      75.72926522        0
C       41.24012722      54.62449488      77.08169192        0
O       42.27505993      55.12953515      76.22496168        0
C       37.77937828      52.41986420      73.40409206        0
C       36.82808511      52.37680601      72.38062721        0
H       35.47077425      51.90468771      68.50585191        0
H       37.15530039      52.09597673      68.99478722        0
H       36.07625896      51.07694929      69.94624942        0
H       35.59649399      55.40885444      69.77787752        0
H       34.97342643      54.35915653      68.50411681        0
H       36.71445804      54.53493080      68.72338840        0
H       33.68935153      51.33232900      69.86206520        0
H       31.48896455      51.28338125      70.83746063        0
H       29.34917887      51.89623299      71.47737116        0
H       30.19613265      51.15898697      72.87475538        0
H       27.83835667      53.11397890      72.97102753        0
H       29.35892984      51.67159070      75.29259457        0
H       27.78893132      52.58643978      75.46182961        0
H       32.30074459      54.94723275      72.95000529        0
H       34.54794923      55.00872664      71.97441090        0
H       37.84352930      55.12032566      70.64114881        0
H       39.47793856      55.19063525      72.40832383        0
H       41.26911837      54.29431172      73.64354847        0
H       40.20529664      55.33329337      74.65111487        0
H       41.99427561      53.05613685      75.66647061        0
H       41.54673850      54.06914439      77.95958230        0
H       40.35326237      55.23138558      77.21471789        0
H       37.76339563      51.66052592      74.18336445        0
H       36.08840419      51.57800772      72.39614570        0
C       28.00250495       6.25671515      32.55784390        0
C       29.31491887       6.81444735      33.16836270        0
C       29.84056576       7.86429432      32.15430495        0
C       29.10933868       7.56116154      34.50865002        0
C       27.84267774       7.80289652      35.06447542        0
C       27.69937611       8.47662669      36.28641838        0
C       28.82099082       8.92594050      36.98056069        0
O       28.81707988       9.58973373      38.17551510        0
C       27.57677804       9.64552456      38.87757490        0
C       27.82372405      10.30740259      40.19354069        0
C       28.27470657       9.51973337      41.39531420        0
O       26.90813224       9.93555831      41.23405160        0
C       30.08434419       8.70822760      36.43609250        0
C       30.22897272       8.03321323      35.22074649        0
C       30.25883854       5.60160013      33.35385094        0
C       31.40535313       5.39457747      32.56938206        0
C       32.22760862       4.27325499      32.76043590        0
C       31.92077113       3.33161916      33.73940043        0
O       32.63074601       2.19820994      34.02509424        0
C       33.78731700       1.93795272      33.22670720        0
C       34.36589934       0.63187210      33.66830401        0
C       35.43071517       0.56226554      34.72965300        0
O       35.74739760       0.44222029      33.33486289        0
C       30.78766841       3.52255928      34.52791510        0
C       29.96722226       4.63846372      34.33839364        0
H       27.29312309       7.05885706      32.32097901        0
H       28.20097229       5.71608129      31.62381286        0
H       27.49484974       5.55646874      33.23127746        0
H       30.82129060       8.26363163      32.43756085        0
H       29.15424464       8.71715464      32.08004179        0
H       29.93634536       7.44154988      31.14659727        0
H       26.93444454       7.47328373      34.56596812        0
H       26.69323844       8.63480810      36.66076542        0
H       26.85147787      10.24600980      38.31688886        0
H       27.18044972       8.63332257      39.02721448        0
H       28.11067707      11.34664362      40.10560928        0
H       28.51338537       8.46971058      41.26465300        0
H       28.86610675      10.02700928      42.14833457        0
H       30.96812177       9.05830052      36.96352984        0
H       31.23383023       7.86923322      34.83726255        0
H       31.68816183       6.09455309      31.78849504        0
H       33.09899011       4.17159907      32.12159572        0
H       33.50758371       1.85461848      32.16799708        0
H       34.52183301       2.74440767      33.35373025        0
H       33.69054223      -0.20368964      33.53950644        0
H       35.49285942      -0.33456466      35.33376379        0
H       35.72197874       1.47325978      35.23738967        0
H       30.53623087       2.79681769      35.29875480        0
H       29.09330245       4.75169046      34.97783971        0
C       49.01784531      27.21385165      65.28049999        0
C       48.48474400      28.51354167      65.93840391        0
C       48.87296747      29.66560293      64.97464366        0
C       46.94338309      28.55442973      66.07533504        0
C       46.10149492      27.55739564      65.55672640        0
C       44.70886581      27.62733993      65.70931830        0
C       44.12551108      28.69821154      66.38360847        0
O       42.78853650      28.88196317      66.60106449        0
C       41.92953532      27.78452659      66.29758606        0
C       40.54440730      28.15714599      66.71400648        0
C       40.06010171      27.92794238      68.12147990        0
O       39.69760837      27.04691204      67.04499231        0
C       44.94467847      29.70390607      66.89100333        0
C       46.33281205      29.63340416      66.74355038        0
C       49.16277906      28.60868178      67.32678622        0
C       50.15067652      29.55838973      67.63477801        0
C       50.75122498      29.60179844      68.90262145        0
C       50.37898947      28.69456402      69.89134045        0
O       50.88518407      28.62480646      71.15988396        0
C       51.91470306      29.55594413      71.50030349        0
C       52.35694779      29.26111687      72.89784001        0
C       51.73324528      29.94991228      74.08177226        0
O       53.01108546      30.34912769      73.56419172        0
C       49.39895527      27.74662789      69.60309517        0
C       48.80036913      27.70155098      68.34057559        0
H       48.64641859      27.09712181      64.25523146        0
H       50.11384511      27.22001167      65.22725772        0
H       48.72961593      26.31596507      65.83933370        0
H       48.62647818      30.65246010      65.38315481        0
H       48.34529172      29.57188220      64.01720064        0
H       49.94675430      29.66154711      64.75030740        0
H       46.50335595      26.69960542      65.02311106        0
H       44.11339666      26.82674944      65.28277237        0
H       41.92848594      27.59213516      65.21869953        0
H       42.26056918      26.88535345      66.83230587        0
H       40.12611003      28.97158317      66.13797231        0
H       40.77053537      27.57411680      68.86085751        0
H       39.29051387      28.58321900      68.51195372        0
H       44.50321223      30.54838052      67.41423794        0
H       46.93862132      30.43111347      67.16821845        0
H       50.48228226      30.28576557      66.89945959        0
H       51.50780596      30.36002917      69.07705705        0
H       52.77551174      29.43302934      70.82951083        0
H       51.53239205      30.58292949      71.42848719        0
H       52.76803760      28.26751153      73.01872448        0
H       51.72105630      29.42660015      75.02998743        0
H       50.89219618      30.61179709      73.91719277        0
H       49.09557727      27.03266490      70.36620340        0
H       48.03666589      26.94741627      68.15758487        0
C       39.26693547       4.90374674      22.06721201        0
C       39.22093072       5.24848732      23.57892171        0
C       37.73028541       5.13511828      23.99355461        0
C       40.00253592       4.25141521      24.46839117        0
C       40.60594160       3.08712544      23.96625722        0
C       41.31298644       2.21277177      24.80481883        0
C       41.43157098       2.48240409      26.16679244        0
O       42.09226969       1.71593506      27.08578931        0
C       42.90708039       0.66089735      26.57851408        0
C       43.61787462       0.03433594      27.73308031        0
C       44.92948694       0.57795235      28.23529733        0
O       44.86597199      -0.59164618      27.40196274        0
C       40.82609836       3.62494042      26.68440223        0
C       40.12494283       4.49939860      25.84933844        0
C       39.79823882       6.67814920      23.71738075        0
C       39.01106396       7.79551782      24.04078241        0
C       39.57159072       9.07825204      24.14262750        0
C       40.93248495       9.27342654      23.92110405        0
O       41.60146678      10.46459504      23.98341480        0
C       40.82770409      11.62914640      24.27993396        0
C       41.74207420      12.81138592      24.23693555        0
C       42.44347467      13.30829464      25.47235394        0
O       41.27409280      13.96053061      24.95537003        0
C       41.72845439       8.17521605      23.60094522        0
C       41.17159293       6.89706344      23.49835758        0
H       38.80737238       3.92982696      21.85974814        0
H       38.72113160       5.64989375      21.47606819        0
H       40.29126101       4.87405567      21.67804977        0
H       37.56032741       5.44886013      25.02999358        0
H       37.37591680       4.10024833      23.90759250        0
H       37.08415467       5.74908935      23.35408924        0
H       40.54558511       2.82890818      22.91187465        0
H       41.75343026       1.32847488      24.35593318        0
H       42.28308336      -0.10171065      26.09885958        0
H       43.62978929       1.05572946      25.85337930        0
H       42.95558190      -0.46879221      28.42469169        0
H       45.30584442       1.49918927      27.80371263        0
H       45.17752405       0.43440857      29.28028320        0
H       40.90525927       3.84511188      27.74603404        0
H       39.68008682       5.38917187      26.28990018        0
H       37.94369374       7.70092593      24.21827705        0
H       38.90934871       9.89979543      24.39611986        0
H       40.04383475      11.76759856      23.52333480        0
H       40.37084656      11.53463105      25.27410007        0
H       42.20002613      12.96645019      23.26889910        0
H       43.39204479      13.81711913      25.35223509        0
H       42.34313523      12.74511191      26.39175521        0
H       42.79406218       8.31138643      23.42758661        0
H       41.82897211       6.06564284      23.24927967        0
C       53.37974360      48.63512133      56.47164671        0
C       52.14671761      49.55750787      56.28435362        0
C       51.13765173      48.74653676      55.42942184        0
C       51.42311074      49.90508198      57.60790971        0
C       51.78481601      49.35197853      58.84688246        0
C       51.10850188      49.69951671      60.02561429        0
C       50.05260214      50.60818377      59.99191107        0
O       49.31736242      51.02983379      61.06437861        0
C       49.80158024      50.67341386      62.35776453        0
C       48.92190870      51.32624959      63.37305478        0
C       49.18193506      52.73129115      63.84877753        0
O       49.55248959      51.58665923      64.63551035        0
C       49.67058413      51.15475475      58.76911565        0
C       50.34633957      50.81275769      57.59437299        0
C       52.66362291      50.83941524      55.58728043        0
C       52.36750575      51.15936380      54.25210513        0
C       52.86833148      52.32554453      53.65280066        0
C       53.67900391      53.19782902      54.37469319        0
O       54.23361643      54.35932295      53.91248271        0
C       53.97946948      54.70243073      52.54848178        0
C       54.72462671      55.96277391      52.24535208        0
C       54.08330031      57.31435212      52.40990088        0
O       54.22747781      56.70011319      51.12069125        0
C       53.98128477      52.89641863      55.70131045        0
C       53.48389629      51.73491487      56.29947992        0
H       53.09814850      47.66369521      56.89566879        0
H       53.87293414      48.43674901      55.51169892        0
H       54.13354898      49.07717697      57.13341394        0
H       50.25637710      49.33660002      55.15246375        0
H       50.77747672      47.86611183      55.97627495        0
H       51.59435295      48.38218881      54.50096294        0
H       52.60153905      48.63927050      58.93086110        0
H       51.43430688      49.23467127      60.95040609        0
H       49.74634885      49.58770790      62.49634217        0
H       50.83937568      51.00846235      62.47919001        0
H       47.90811538      50.94900592      63.37056386        0
H       49.96805571      53.30249940      63.36677832        0
H       48.33952349      53.32111921      64.19019853        0
H       48.84480447      51.86050865      58.72664915        0
H       50.02743870      51.27391746      56.66199866        0
H       51.74469113      50.51167783      53.64191174        0
H       52.60237491      52.51541683      52.61792289        0
H       54.34834367      53.91110673      51.88229819        0
H       52.90233318      54.84738317      52.39105123        0
H       55.79640868      55.86726752      52.35946347        0
H       54.72227135      58.15987849      52.63332272        0
H       53.08854585      57.37199124      52.83379095        0
H       54.61134249      53.56962939      56.27917728        0
H       53.74126546      51.53828607      57.33897289        0
C       10.55370199      54.02534042       9.69964982        0
C       10.79724624      54.59272556       8.27662873        0
C       10.64140951      56.13115143       8.40215632        0
C       12.22704687      54.33711017       7.74132852        0
C       13.23881744      53.74248287       8.51239679        0
C       14.52036574      53.52051621       7.98708064        0
C       14.82016828      53.89005400       6.67738745        0
O       16.02320080      53.72717046       6.04910844        0
C       16.99440985      52.92270799       6.71539842        0
C       18.17474942      52.78472558       5.81063869        0
C       18.24060017      51.70097292       4.76698574        0
O       18.95034134      51.59437172       6.01251578        0
C       13.83286686      54.49517067       5.90345207        0
C       12.55414756      54.71303617       6.42406645        0
C        9.74014663      53.93318852       7.35796669        0
C        8.65294514      54.63514898       6.81208212        0
C        7.70788111      53.99592106       5.99464014        0
C        7.82723524      52.63884651       5.70601915        0
O        6.97852231      51.89685903       4.93178231        0
C        5.84319076      52.57039032       4.38388630        0
C        5.03082264      51.56471196       3.63269997        0
C        5.24256801      51.32286342       2.16238957        0
O        4.15016133      52.11840785       2.64601626        0
C        8.90107819      51.92759892       6.23811265        0
C        9.84281348      52.56260094       7.05309737        0
H       11.21351962      54.49287499      10.44046785        0
H        9.52217629      54.20878004      10.02582903        0
H       10.71743819      52.94263228       9.74970136        0
H       10.70166259      56.63733232       7.43175646        0
H       11.42938910      56.55563957       9.03683766        0
H        9.68148474      56.40528455       8.85686151        0
H       13.05924976      53.43383880       9.53930281        0
H       15.25881588      53.05985979       8.63512163        0
H       17.32043818      53.41180291       7.64033268        0
H       16.57384604      51.93631821       6.94816930        0
H       18.69550367      53.71683092       5.63717244        0
H       17.36706520      51.07595174       4.61574773        0
H       18.82455142      51.88495897       3.87296518        0
H       14.05403776      54.79412696       4.88192743        0
H       11.80653347      55.17391168       5.78191778        0
H        8.50887424      55.69349481       7.00925928        0
H        6.89137304      54.59455172       5.60385592        0
H        5.22339465      52.98732495       5.18892091        0
H        6.17069037      53.37587621       3.71309967        0
H        4.65965387      50.76035463       4.25407143        0
H        5.00799701      50.34243878       1.76633383        0
H        6.05596445      51.83265905       1.66135449        0
H        9.00933794      50.86713795       6.01943965        0
H       10.66838030      51.97135094       7.44592083        0
C        6.02033590      32.05221006      15.63560656        0
C        6.25839849      31.48923905      17.06130588        0
C        5.46273790      32.41403434      18.01967654        0
C        5.70210904      30.05930602      17.26636435        0
C        4.95919055      29.37873851      16.28825005        0
C        4.47943742      28.07944623      16.51021585        0
C        4.73073178      27.43083113      17.71764519        0
O        4.32313513      26.17066740      18.05588347        0
C        3.77418135      25.36899067      17.01170275        0
C        3.50647101      24.00951319      17.56936123        0
C        4.57391514      22.94741412      17.59336564        0
O        3.53152214      22.94852237      16.60348836        0
C        5.45288941      28.09710641      18.70479859        0
C        5.93532039      29.39012371      18.48345188        0
C        7.78867454      31.52229670      17.29271684        0
C        8.41140990      32.41549278      18.17992986        0
C        9.80458349      32.42261480      18.35018373        0
C       10.60754631      31.53770604      17.63507113        0
O       11.97020125      31.44346585      17.70283568        0
C       12.64184244      32.35741723      18.57255008        0
C       14.11211644      32.11821631      18.44336368        0
C       14.83597100      31.16157231      19.35221259        0
O       14.89677045      32.58187255      19.55017406        0
C       10.00575819      30.64345034      16.75172912        0
C        8.61835617      30.63558482      16.58042017        0
H        4.95108613      32.13651698      15.40679113        0
H        6.45218882      33.05551884      15.53090328        0
H        6.47473163      31.42559882      14.85942714        0
H        5.63140078      32.16659604      19.07412072        0
H        4.38365144      32.33335821      17.83805551        0
H        5.73274249      33.46833601      17.88217426        0
H        4.73506499      29.83705416      15.32816872        0
H        3.90912147      27.60925877      15.71577672        0
H        2.82599801      25.79593978      16.66576269        0
H        4.47835123      25.30604190      16.17253456        0
H        2.73474968      23.99940584      18.32727938        0
H        5.57825588      23.21763243      17.28535670        0
H        4.52716488      22.19096941      18.36778706        0
H        5.65158119      27.60580589      19.65398212        0
H        6.50874465      29.86992459      19.27380859        0
H        7.83349155      33.13034984      18.75848056        0
H       10.22376954      33.13721541      19.05117262        0
H       12.42991687      33.39257575      18.27322280        0
H       12.31776904      32.19761696      19.60959324        0
H       14.48968158      32.28792245      17.44361178        0
H       15.72586066      30.67237986      18.97551204        0
H       14.26084880      30.57696192      20.05932406        0
H       10.61969036      29.94405759      16.18776759        0
H        8.18802991      29.91883951      15.88289391        0
C       15.71747073      38.88168015      50.82133587        0
C       15.53543702      40.25988166      51.50956043        0
C       16.05314716      41.31180697      50.49357530        0
C       14.05829426      40.61919043      51.80138550        0
C       12.97952772      39.82178737      51.38639307        0
C       11.65471397      40.17853793      51.67826608        0
C       11.37805878      41.34325510      52.39145037        0
O       10.13761336      41.79939223      52.74043016        0
C        9.04342463      40.90607484      52.54273275        0
C        7.81563223      41.55579672      53.09156616        0
C        7.44107283      41.42395371      54.54428441        0
O        6.79563168      40.64372051      53.52394951        0
C       12.43536559      42.15391383      52.79745649        0
C       13.75621622      41.79752143      52.51115975        0
C       16.35699533      40.20401916      52.82040366        0
C       17.54644694      40.92603571      53.01182592        0
C       18.26955571      40.83636741      54.21142713        0
C       17.82067942      40.02046034      55.24680366        0
O       18.42861455      39.83968669      56.45842963        0
C       19.65803412      40.53470469      56.67817867        0
C       20.17032942      40.14630025      58.02810732        0
C       19.82744667      40.94268071      59.25828986        0
O       21.10040496      41.07082413      58.60767898        0
C       16.64126727      39.29842853      55.07419904        0
C       15.92026724      39.38602640      53.87972067        0
H       15.22692974      38.85062569      49.84094595        0
H       16.77962549      38.66039737      50.65717303        0
H       15.30824392      38.05998175      51.42043250        0
H       16.05961710      42.32593476      50.90954209        0
H       15.42229907      41.33531341      49.59613419        0
H       17.07405415      41.08614403      50.16163176        0
H       13.13815311      38.90237310      50.82822011        0
H       10.86582173      39.52157725      51.32680946        0
H        8.89206879      40.72440236      51.47264013        0
H        9.23396147      39.95464903      53.05508579        0
H        7.51840824      42.44270000      52.54828321        0
H        8.13467990      40.92598529      55.21325709        0
H        6.86806133      42.22247991      55.00050413        0
H       12.23438544      43.06858883      53.34952589        0
H       14.55437945      42.44952733      52.85974510        0
H       17.94447803      41.57296662      52.23543504        0
H       19.18060683      41.41990547      54.29643056        0
H       20.40138726      40.23961632      55.92557559        0
H       19.49148846      41.61909881      56.62949450        0
H       20.37681493      39.08829427      58.12216334        0
H       19.80426336      40.42777979      60.21089458        0
H       19.12944135      41.76575471      59.16952471        0
H       16.27632424      38.65859306      55.87516264        0
H       15.00225925      38.80802412      53.78686544        0
C       16.76954816       6.33605512      66.99275190        0
C       15.73153997       7.45367942      67.27503485        0
C       14.93545908       6.98658861      68.52198226        0
C       16.36848694       8.81547676      67.64384641        0
C       17.75118787       8.99426507      67.81112008        0
C       18.28989697      10.24757306      68.13762258        0
C       17.45684072      11.35183418      68.30602879        0
O       17.85460736      12.62116280      68.62089284        0
C       19.25446317      12.88946372      68.56828534        0
C       19.45272343      14.34621701      68.83171185        0
C       19.38834848      15.36019869      67.72006233        0
O       20.64232576      14.90438647      68.25505543        0
C       16.08142389      11.18901055      68.15898029        0
C       15.54351964       9.94175545      67.82937225        0
C       14.86783821       7.57894486      65.99647454        0
C       13.52732820       7.16460734      65.93242117        0
C       12.78282417       7.28253266      64.74845448        0
C       13.36278230       7.81574986      63.60018324        0
O       12.75447097       7.98146460      62.38659448        0
C       11.39880158       7.54282264      62.27449683        0
C       10.96057890       7.76150506      60.86178641        0
C       10.28602382       9.03788927      60.43639448        0
O        9.54070989       7.83501890      60.67670281        0
C       14.69149364       8.23346858      63.64679375        0
C       15.43464494       8.11599457      64.82502080        0
H       17.38524727       6.12296023      67.87494485        0
H       16.27286989       5.39856369      66.71255775        0
H       17.44850003       6.59612966      66.17241222        0
H       14.10453920       7.65967672      68.76291784        0
H       15.58201418       6.94255300      69.40739164        0
H       14.51545619       5.98293577      68.38183983        0
H       18.44670049       8.16737951      67.69043809        0
H       19.36614029      10.31914641      68.25614532        0
H       19.77797316      12.32107302      69.34538314        0
H       19.65465676      12.62137708      67.58238694        0
H       19.17641420      14.64391929      69.83426980        0
H       19.09673366      15.02412002      66.73082036        0
H       19.07798361      16.36931795      67.96393660        0
H       15.41873791      12.04027548      68.29314184        0
H       14.46546054       9.85986872      67.70783576        0
H       13.02747194       6.73690862      66.79668311        0
H       11.75175054       6.94433566      64.76477426        0
H       11.32637144       6.47033464      62.49940971        0
H       10.76102827       8.11038768      62.96524522        0
H       11.54103832       7.20263000      60.13957801        0
H       10.39828798       9.35743257      59.40760636        0
H       10.19161659       9.84283198      61.15451425        0
H       15.15783421       8.65462958      62.75838764        0
H       16.46858052       8.45716546      64.81982124        0
C       12.01896959      24.22747336      44.92738669        0
C       12.38880500      25.35226158      45.92953536        0
C       13.53293562      26.15716227      45.25879217        0
C       11.23913002      26.35534991      46.19083335        0
C       10.01447216      26.31256979      45.50512890        0
C        8.99400408      27.23567821      45.77735683        0
C        9.17581062      28.22492134      46.74176360        0
O        8.26404536      29.17796582      47.10085014        0
C        6.93805347      29.02276070      46.59884805        0
C        6.09091104      30.09539798      47.20103556        0
C        5.42474119      29.91033898      48.53895877        0
O        4.69701067      29.77130643      47.30708229        0
C       10.39018179      28.29144266      47.42057419        0
C       11.40634381      27.36964001      47.15351175        0
C       12.81080980      24.64589370      47.24077333        0
C       14.13762765      24.60969019      47.70010894        0
C       14.48077388      23.94556630      48.88803144        0
C       13.50475261      23.30020216      49.64307213        0
O       13.70334367      22.61619346      50.81054608        0
C       15.04596200      22.53171260      51.29329982        0
C       15.03642418      21.69686795      52.53368495        0
C       14.88478771      22.31600514      53.89706862        0
O       16.16259758      21.89229183      53.39926639        0
C       12.18286699      23.32782252      49.20262825        0
C       11.83954013      23.98819313      48.01927272        0
H       11.77460145      24.63128953      43.93744935        0
H       12.85452145      23.52898681      44.79300710        0
H       11.15892303      23.63677451      45.26349141        0
H       13.94289279      26.92962522      45.91967153        0
H       13.17840749      26.66331910      44.35212934        0
H       14.36368006      25.50675273      44.95847156        0
H        9.81884655      25.56132561      44.74394267        0
H        8.07242094      27.15115466      45.21077907        0
H        6.92949499      29.14318256      45.50961115        0
H        6.54637275      28.03254879      46.86358864        0
H        6.36637209      31.09157380      46.88189477        0
H        5.65038330      29.01536648      49.10878122        0
H        5.22749525      30.79038836      49.13956665        0
H       10.54845725      29.06146053      48.17145725        0
H       12.33405294      27.44579037      47.71675671        0
H       14.93891883      25.09173209      47.14757006        0
H       15.52361643      23.95473643      49.18828421        0
H       15.68757283      22.04171463      50.54878660        0
H       15.43169521      23.53656263      51.51125513        0
H       14.68870020      20.68548112      52.36923384        0
H       14.43340957      21.72113576      54.68160948        0
H       14.69817619      23.38019710      53.96927042        0
H       11.40852867      22.83034264      49.78317064        0
H       10.79491530      23.98866297      47.71234251        0
C        8.51946376      37.90595389      35.50829765        0
C        7.45209575      38.94230058      35.94754674        0
C        6.83052291      39.49114208      34.63635772        0
C        6.28840633      38.32899827      36.76357530        0
C        6.15689553      36.94987130      36.99275060        0
C        5.09122001      36.43434357      37.74518608        0
C        4.13060288      37.28728891      38.28503325        0
O        3.05050658      36.91332963      39.03476603        0
C        3.01358354      35.55910780      39.48093768        0
C        1.82245761      35.40052342      40.36801200        0
C        1.89510118      35.70626911      41.84086980        0
O        1.93695587      34.35709739      41.34647597        0
C        4.23718228      38.65674241      38.05450305        0
C        5.30088496      39.17233341      37.30862755        0
C        8.20069257      40.01356544      36.77723527        0
C        8.42744968      41.32082519      36.31636798        0
C        9.12380399      42.25851009      37.09470432        0
C        9.61153500      41.90953450      38.35149918        0
O       10.30647923      42.72077238      39.20545899        0
C       10.58309402      44.04965540      38.75783600        0
C       11.39593138      44.72976200      39.81252187        0
C       10.74862689      45.53569484      40.90641796        0
O       11.36031162      46.16243291      39.76923756        0
C        9.39381801      40.61699750      38.82487293        0
C        8.70110711      39.68163055      38.05057758        0
H        8.09327266      37.14033220      34.84879494        0
H        9.33449021      38.38984671      34.95542528        0
H        8.97406748      37.38947524      36.36161873        0
H        6.12069336      40.30595146      34.82007783        0
H        6.28613147      38.70397422      34.09976930        0
H        7.59882662      39.87243727      33.95248291        0
H        6.87819928      36.23968200      36.59602181        0
H        5.04448214      35.35909421      37.88347729        0
H        2.90330244      34.88215308      38.62619673        0
H        3.93290253      35.31549148      40.02822617        0
H        0.88064526      35.52104858      39.84978515        0
H        2.80821738      36.14040252      42.23372442        0
H        0.99008671      36.02681077      42.34318896        0
H        3.49191036      39.33371248      38.46448514        0
H        5.35683667      40.24930363      37.16477851        0
H        8.07367554      41.64437519      35.34174477        0
H        9.26537745      43.25194184      36.68141662        0
H       11.16902563      44.02386643      37.82935256        0
H        9.64395297      44.59315421      38.58859849        0
H       12.34663440      44.24842924      40.00051657        0
H       11.26332727      45.61522574      41.85608871        0
H        9.66793814      45.55291531      40.97242374        0
H        9.76656752      40.33011970      39.80613460        0
H        8.54979860      38.68368372      38.45881190        0
C       49.46325144       3.75042970      15.71948128        0
C       48.45508136       4.83519553      16.18111415        0
C       47.04982480       4.29116293      15.81222531        0
C       48.44937780       5.06817781      17.71144161        0
C       49.20746378       4.29638842      18.60668146        0
C       49.18090834       4.54508423      19.98691242        0
C       48.39335822       5.57169263      20.50418991        0
O       48.28182716       5.91619036      21.82230786        0
C       49.20651521       5.31417942      22.72612425        0
C       48.98340148       5.91181037      24.07663835        0
C       49.66733892       7.18745981      24.49258991        0
O       50.13308400       5.90157599      24.93533786        0
C       47.62315881       6.33716484      19.63197927        0
C       47.65192517       6.09338021      18.25598170        0
C       48.83697158       6.13309953      15.42878864        0
C       48.05405771       6.68238339      14.40015915        0
C       48.44358462       7.85415956      13.73294169        0
C       49.62671876       8.50260408      14.07777809        0
O       50.12228190       9.64273446      13.50784685        0
C       49.36809396      10.21386527      12.43648216        0
C       50.11840382      11.40381331      11.92985544        0
C       49.86139543      12.78438339      12.47125403        0
O       49.32257937      12.35601829      11.21176259        0
C       50.41465459       7.97202444      15.09747298        0
C       50.02850177       6.80458274      15.76249844        0
H       49.22611805       2.76884334      16.14728404        0
H       49.44891778       3.63805093      14.62803554        0
H       50.49408698       3.99272008      16.00275689        0
H       46.25512795       5.01990389      16.00950412        0
H       46.81243889       3.39024276      16.39180548        0
H       46.98753093       4.01574233      14.75221384        0
H       49.83993291       3.48401399      18.25729307        0
H       49.78692176       3.91111261      20.62589426        0
H       49.02582263       4.23510832      22.78911187        0
H       50.23574498       5.49699370      22.39252864        0
H       48.01939244       5.66692306      24.50185906        0
H       50.25472537       7.72286922      23.75441535        0
H       49.17449304       7.81906564      25.22217864        0
H       46.99941394       7.13764791      20.02181667        0
H       47.04808395       6.72401482      17.60685632        0
H       47.12501249       6.21452351      14.08756793        0
H       47.79427419       8.22737118      12.94753386        0
H       49.26618754       9.49126863      11.61579245        0
H       48.37331045      10.51220885      12.79343466        0
H       51.09844801      11.16109588      11.54067540        0
H       50.67234578      13.50197846      12.44816677        0
H       49.17551988      12.90031608      13.30111898        0
H       51.34062723       8.46885115      15.38005644        0
H       50.67102318       6.42511227      16.55535139        0
C       11.65799077      25.47895819       6.74943437        0
C       11.41892460      26.77925348       7.56079633        0
C       11.79858905      27.94610996       6.61153488        0
C        9.93980948      27.00005108       7.96039898        0
C        8.89818677      26.15868761       7.53738925        0
C        7.57092494      26.38856731       7.92869946        0
C        7.25442973      27.46746271       8.75183462        0
O        6.00744448      27.79795061       9.20389473        0
C        4.97026201      26.84256895       8.98977412        0
C        3.73388934      27.35029716       9.65642657        0
C        3.45679958      27.07354974      11.11062730        0
O        2.80938863      26.33113512      10.06366932        0
C        8.27320172      28.32108624       9.16817191        0
C        9.59682360      28.09081036       8.78265164        0
C       12.31887367      26.68076382       8.81649538        0
C       13.46280622      27.47368184       9.00476340        0
C       14.26054010      27.34304903      10.15216284        0
C       13.93365210      26.41444261      11.13706547        0
O       14.62395592      26.18350622      12.29484384        0
C       15.81130195      26.95035979      12.50687487        0
C       16.42948403      26.49462475      13.78974989        0
C       16.10418826      27.16072179      15.09957313        0
O       17.32374091      27.43770304      14.39522179        0
C       12.80083560      25.62075861      10.96698374        0
C       12.00565431      25.74908174       9.82439331        0
H       11.11350118      25.48969412       5.79750209        0
H       12.72162320      25.35336128       6.51068824        0
H       11.34504877      24.58279846       7.29764660        0
H       11.75710313      28.92092351       7.11107755        0
H       11.11542559      27.99367097       5.75424377        0
H       12.81148863      27.82653872       6.20768031        0
H        9.08880692      25.30207038       6.89558512        0
H        6.81163239      25.70378339       7.56535956        0
H        4.76894140      26.73674293       7.91772815        0
H        5.25861438      25.87026195       9.40869298        0
H        3.34209720      28.25283013       9.20695016        0
H        4.22285890      26.57767172      11.69701103        0
H        2.85619257      27.78661337      11.66283575        0
H        8.04038742      29.17025237       9.80575987        0
H       10.36553113      28.77160935       9.14222008        0
H       13.76657993      28.20959455       8.26592298        0
H       15.13087541      27.98567260      10.23764848        0
H       16.52781102      26.77452078      11.69338988        0
H       15.56488390      28.01926061      12.55929040        0
H       16.71647592      25.45133965      13.78258620        0
H       16.17465289      26.57043012      16.00494965        0
H       15.34496058      27.93257971      15.11828623        0
H       12.53095915      24.89244212      11.72911058        0
H       11.12752875      25.11206171       9.73193588        0
C       10.84134456      47.75135620      13.69621767        0
C       10.52915767      49.09375562      14.40806869        0
C       10.92307401      50.20750486      13.40248977        0
C        9.02719201      49.29611307      14.72329243        0
C        8.02977890      48.39874030      14.30892927        0
C        6.67959606      48.61410908      14.62232181        0
C        6.29538983      49.73414143      15.35692993        0
O        5.01977441      50.05616453      15.72795447        0
C        4.01975428      49.05869950      15.52952942        0
C        2.73971167      49.57170305      16.10324460        0
C        2.40034387      49.38149043      17.55813850        0
O        1.82397190      48.55412522      16.53358807        0
C        7.26998354      50.64263641      15.76277502        0
C        8.61626363      50.42713924      15.45501111        0
C       11.36989082      49.10330524      15.70786298        0
C       12.48204441      49.94020140      15.89618382        0
C       13.22678223      49.90766565      17.08541751        0
C       12.87754085      49.03542801      18.11324570        0
O       13.51716580      48.90033821      19.31446691        0
C       14.67221291      49.71405550      19.53020403        0
C       15.23975114      49.36069254      20.86760703        0
C       14.83424842      50.10017881      22.11414909        0
O       16.07854328      50.36696451      21.45030138        0
C       11.77563110      48.19927225      17.94361738        0
C       11.03327160      48.22989054      16.75944768        0
H       10.34322979      47.68442203      12.72145580        0
H       11.91819017      47.64207854      13.51580104        0
H       10.52619643      46.88366018      14.28728185        0
H       10.83179759      51.21092467      13.83416408        0
H       10.28096317      50.17932300      12.51320812        0
H       11.95705406      50.09206264      13.05475465        0
H        8.27368608      47.50842752      13.73456518        0
H        5.95706939      47.88512268      14.27017964        0
H        3.87315863      48.87787525      14.45863074        0
H        4.31323311      48.12446178      16.02459614        0
H        2.34626738      50.43131013      15.57753257        0
H        3.15013509      48.94742372      18.21081528        0
H        1.75518263      50.11070174      18.03368087        0
H        6.98434617      51.52399720      16.33147395        0
H        9.34847813      51.15218521      15.80409311        0
H       12.80145818      50.63545940      15.12526079        0
H       14.07467868      50.57991523      17.16853489        0
H       15.43146347      49.50724182      18.76415630        0
H       14.39535337      50.77635727      19.50050637        0
H       15.55426635      48.32806678      20.94259834        0
H       14.87663473      49.57200263      23.05879161        0
H       14.05483836      50.84885291      22.04670618        0
H       11.48874108      47.51409879      18.73881986        0
H       10.17778404      47.56254930      16.66865062        0
C       11.56751392      25.92746503      54.14275940        0
C       10.63538155      25.91443149      55.38259330        0
C       11.52193130      25.46498868      56.57373860        0
C       10.07355381      27.30844324      55.75312836        0
C       10.45590297      28.48826676      55.09462007        0
C        9.91676337      29.73193979      55.45544992        0
C        8.98283658      29.82441282      56.48548171        0
O        8.38346434      30.96979497      56.92978505        0
C        8.56815917      32.14226274      56.13886384        0
C        7.74290611      33.23403222      56.73705078        0
C        6.29495548      33.41633327      56.36520013        0
O        7.32768178      34.24896782      55.81145153        0
C        8.60384379      28.66605800      57.15963660        0
C        9.13690848      27.42551772      56.79834779        0
C        9.48782785      24.92863368      55.05439857        0
C        9.35238340      23.67524644      55.67360835        0
C        8.30457732      22.80427499      55.33673908        0
C        7.36898963      23.16604253      54.37082048        0
O        6.30813101      22.41381366      53.94769822        0
C        6.15553527      21.11903420      54.53342245        0
C        4.98128978      20.45750121      53.88601727        0
C        3.59665056      20.57176537      54.46468595        0
O        4.39513972      19.39307537      54.64701266        0
C        7.48756967      24.40695496      53.74775513        0
C        8.53104534      25.27529632      54.08157363        0
H       12.45632824      26.54757051      54.31079969        0
H       11.92067356      24.91620735      53.90459052        0
H       11.06384584      26.30972972      53.24734677        0
H       10.94473196      25.32893769      57.49561520        0
H       12.30008049      26.20852956      56.78717061        0
H       12.03329146      24.51759263      56.36323238        0
H       11.17970186      28.47366882      54.28348275        0
H       10.25570244      30.60657636      54.90992150        0
H        9.61970153      32.45026777      56.15894525        0
H        8.25892101      31.95303959      55.10320590        0
H        8.07766096      33.53752898      57.71986551        0
H        5.82947252      32.67603949      55.72342251        0
H        5.63044318      33.86295602      57.09531945        0
H        7.88059988      28.72367773      57.96920576        0
H        8.80296876      26.54246789      57.33908362        0
H       10.05695632      23.34073288      56.42952424        0
H        8.25567486      21.85042026      55.85203134        0
H        7.04800311      20.50803387      54.34304871        0
H        5.99380954      21.21198199      55.61565334        0
H        5.10015336      20.31702251      52.81971682        0
H        2.75274205      20.50243195      53.78931386        0
H        3.44071285      21.21414583      55.32234105        0
H        6.76268666      24.70492467      52.99285500        0
H        8.58563720      26.23669226      53.57345456        0
C       19.60080732      31.50118299      26.57224096        0
C       19.24102699      32.04451316      25.16455521        0
C       20.50198737      32.79919997      24.66733979        0
C       18.95314085      30.93485738      24.12436244        0
C       19.10725572      29.56682809      24.40104288        0
C       18.82778168      28.59128310      23.43264289        0
C       18.38868585      28.96216653      22.16324290        0
O       18.08180034      28.11351992      21.13651362        0
C       18.00178970      26.72453246      21.45061769        0
C       17.54645017      26.00238898      20.22505434        0
C       16.08309230      25.84177848      19.90747655        0
O       16.85470724      24.77042041      20.47602179        0
C       18.24509230      30.31546848      21.86682939        0
C       18.51899938      31.28852941      22.83210401        0
C       18.00410186      32.95612815      25.35260559        0
C       18.05618086      34.35454845      25.23238091        0
C       16.91358769      35.14661789      25.42493377        0
C       15.69256696      34.55822914      25.74447387        0
O       14.51034812      35.21053430      25.96163357        0
C       14.53104258      36.63721020      25.87808855        0
C       13.16075029      37.13655826      26.20757660        0
C       12.13039289      37.37071497      25.13581460        0
O       12.86744742      38.45355568      25.72262353        0
C       15.62280944      33.17167871      25.86591149        0
C       16.76007409      32.38139223      25.67520386        0
H       20.51640243      30.89784178      26.55164412        0
H       19.77205421      32.32233841      27.27967753        0
H       18.80441914      30.87673380      26.99343056        0
H       20.33341948      33.30938431      23.71192249        0
H       21.34134409      32.10800300      24.52020224        0
H       20.83268000      33.55540896      25.38994045        0
H       19.44565482      29.22176748      25.37493246        0
H       18.96996508      27.55134475      23.70792851        0
H       18.98974482      26.34293940      21.73229676        0
H       17.29521148      26.56263364      22.27436341        0
H       18.26177345      26.03679215      19.41436025        0
H       15.35938425      26.34734238      20.53774599        0
H       15.79105886      25.75063789      18.86798987        0
H       17.90900498      30.61992127      20.87882240        0
H       18.37900693      32.33410011      22.56588602        0
H       18.98356438      34.86548661      24.99023806        0
H       17.02037339      36.22122418      25.31734879        0
H       15.23761055      37.05072432      26.61009279        0
H       14.81963867      36.95101379      24.86603232        0
H       12.83658565      36.87677594      27.20672118        0
H       11.08477019      37.27740675      25.40242838        0
H       12.36578776      37.09337390      24.11590643        0
H       14.67517623      32.69705307      26.11256371        0
H       16.66178142      31.30176938      25.77620124        0
C       46.40319393      22.08076739      26.85595039        0
C       45.11737269      22.35408544      27.67947314        0
C       44.25390414      23.30723929      26.81188094        0
C       44.25993849      21.09023558      27.93187262        0
C       44.56239701      19.83603034      27.37753007        0
C       43.76395243      18.71243916      27.63757129        0
C       42.64242104      18.81797838      28.45779370        0
O       41.78810218      17.80380784      28.78968254        0
C       42.19130607      16.48116376      28.43984187        0
C       41.17902909      15.53171535      28.99181457        0
C       41.28060742      15.00836296      30.40030728        0
O       41.67871664      14.21544522      29.26927593        0
C       42.31899260      20.05791977      29.00354605        0
C       43.11608921      21.17747649      28.74887471        0
C       45.58167043      22.97965606      29.01718673        0
C       45.37177072      24.32866894      29.34711379        0
C       45.82163357      24.86046131      30.56563340        0
C       46.49401849      24.05549286      31.48167006        0
O       46.98630467      24.44623659      32.69627921        0
C       46.81854559      25.81995083      33.05346020        0
C       47.47860523      26.03411438      34.37787217        0
C       46.71538071      25.89832895      35.66790712        0
O       47.01679305      27.18235552      35.10172300        0
C       46.70920383      22.71412113      31.17094116        0
C       46.26245861      22.18307652      29.95739128        0
H       46.16935141      21.70118361      25.85395585        0
H       46.98918756      22.99905098      26.72383316        0
H       47.05996992      21.34890176      27.34029489        0
H       43.35254318      23.64648483      27.33531793        0
H       43.92424331      22.81019180      25.89090866        0
H       44.81488672      24.20048394      26.51059388        0
H       45.42590060      19.69689989      26.73173914        0
H       44.04948246      17.77255019      27.17653832        0
H       42.21547923      16.36894366      27.34996390        0
H       43.18387738      16.26555532      28.85497584        0
H       40.20393819      15.62762497      28.53345339        0
H       42.05365371      15.41065663      31.04617646        0
H       40.36652537      14.72828501      30.91033968        0
H       41.44362905      20.15660032      29.64057416        0
H       42.83835211      22.12440468      29.20699816        0
H       44.85793952      25.00203828      28.66720027        0
H       45.62760181      25.91029022      30.76048549        0
H       47.30613949      26.46768889      32.31268357        0
H       45.74987372      26.06542132      33.11431145        0
H       48.54143328      25.83129017      34.36699365        0
H       47.26086770      25.60503654      36.55646757        0
H       45.68754109      25.55939390      35.63311879        0
H       47.23078313      22.07184342      31.87772961        0
H       46.44814284      21.12951069      29.75498618        0
C        6.66973739      24.02076901      34.18697139        0
C        7.07780783      23.17952445      35.42471725        0
C        6.29554560      21.84507985      35.30589017        0
C        8.58019776      22.80799861      35.45647322        0
C        9.46690362      23.11243758      34.41106554        0
C       10.82415856      22.76544717      34.48212188        0
C       11.32597927      22.10381876      35.60112135        0
O       12.62206294      21.71429100      35.79344409        0
C       13.58769084      22.20885459      34.86752895        0
C       14.93603110      21.75957084      35.32682566        0
C       15.73169778      22.55960158      36.32428892        0
O       16.02205643      22.60331319      34.91708511        0
C       10.45723121      21.78041196      36.64063618        0
C        9.10545207      22.12937123      36.57319493        0
C        6.69241465      24.01809535      36.66756059        0
C        5.63095581      23.67930886      37.52270641        0
C        5.30491903      24.47513312      38.63191041        0
C        6.03188724      25.62979751      38.91023792        0
O        5.81752101      26.49200483      39.94992412        0
C        4.72609450      26.19643173      40.82413054        0
C        4.64099011      27.29114873      41.83900185        0
C        5.35611645      27.19617000      43.15987765        0
O        3.94827975      26.94150072      43.04464975        0
C        7.08949930      25.97969871      38.07288425        0
C        7.41504522      25.18855788      36.96725816        0
H        6.83859304      23.47342922      33.25173550        0
H        5.60399341      24.27990015      34.22057292        0
H        7.22629075      24.96290538      34.12217152        0
H        6.43458418      21.20037616      36.18141905        0
H        6.62426432      21.27341540      34.42892599        0
H        5.21804048      22.01601401      35.19132322        0
H        9.12916001      23.62841223      33.51566558        0
H       11.45665258      23.02602879      33.63979261        0
H       13.40340507      21.79287376      33.87052825        0
H       13.54417384      23.30440370      34.82394655        0
H       15.07057911      20.68716597      35.28277439        0
H       15.26497902      23.42521726      36.78196879        0
H       16.43095002      22.03300755      36.96293416        0
H       10.83337791      21.25911304      37.51731463        0
H        8.46316260      21.87287479      37.41305313        0
H        5.02796054      22.79275635      37.34906161        0
H        4.47375148      24.15828108      39.25361908        0
H        3.78389238      26.17016927      40.26054570        0
H        4.89008741      25.22910013      41.31748043        0
H        4.45322595      28.26521741      41.40680479        0
H        5.65803240      28.11610941      43.64534074        0
H        6.00932556      26.35158790      43.34026729        0
H        7.66857310      26.87767231      38.27887569        0
H        8.25055708      25.49568530      36.34032907        0
C       25.34534739      44.47504835      46.30181095        0
C       24.74617613      45.81603837      45.80284374        0
C       23.21982728      45.57333221      45.66812425        0
C       24.91968651      46.98510618      46.80253869        0
C       25.47174690      46.82228062      48.08336840        0
C       25.61949354      47.90967142      48.95706427        0
C       25.21655272      49.18616175      48.56983416        0
O       25.30793322      50.32341864      49.32272803        0
C       26.07016087      50.24046366      50.52542363        0
C       26.13397550      51.60760351      51.12349315        0
C       27.19809981      52.59270024      50.71693259        0
O       27.28517587      51.85063958      51.94502263        0
C       24.65270765      49.36293398      47.30859011        0
C       24.50884342      48.28117640      46.43524519        0
C       25.44674791      46.13295648      44.45928476        0
C       24.79458469      46.05836331      43.21756639        0
C       25.47048068      46.34017645      42.02018770        0
C       26.81534645      46.70108300      42.03696104        0
O       27.58945757      46.99554812      40.94868534        0
C       26.96815273      46.90050499      39.66503458        0
C       28.00400980      47.20225496      38.62987328        0
C       28.21388866      48.59951006      38.11144436        0
O       27.48299039      47.61856941      37.36065727        0
C       27.47728336      46.78162488      43.26067989        0
C       26.80574550      46.50050923      44.45412192        0
H       24.85462934      44.12874105      47.21943085        0
H       25.22029887      43.68414543      45.55152854        0
H       26.41869106      44.55097145      46.51095361        0
H       22.69763687      46.43215729      45.23078906        0
H       22.76395108      45.38342645      46.64793806        0
H       23.00230260      44.70125868      45.03921080        0
H       25.80367304      45.84895313      48.43621443        0
H       26.05023979      47.71725950      49.93425687        0
H       25.57782470      49.57093453      51.23980976        0
H       27.08022175      49.87045591      50.30887738        0
H       25.17375133      51.97622621      51.45843006        0
H       27.86544270      52.32596042      49.90447267        0
H       26.97152284      53.65001910      50.78666347        0
H       24.32837102      50.35203487      46.99507906        0
H       24.07843678      48.46399601      45.45289336        0
H       23.74801563      45.77665458      43.14640078        0
H       24.90962117      46.26470408      41.09417640        0
H       26.59529093      45.88118398      39.49763932        0
H       26.13742018      47.61533605      39.59490471        0
H       28.83518917      46.50948029      38.63784653        0
H       29.19951558      48.86913609      37.75233779        0
H       27.65557564      49.41190847      38.55959266        0
H       28.52752200      47.06489508      43.29021523        0
H       27.35879336      46.57830232      45.38875217        0
C       30.51877465      33.71680351       7.20525948        0
C       30.70676014      35.18647961       7.66454406        0
C       32.05878162      35.64890456       7.06039381        0
C       29.62707479      36.15187988       7.11819504        0
C       28.63441636      35.75486506       6.20780167        0
C       27.66822468      36.65913080       5.74264642        0
C       27.67365010      37.98324340       6.17673442        0
O       26.79096956      38.95777041       5.80293635        0
C       25.64121584      38.53910045       5.07004411        0
C       24.76591922      39.73243112       4.86842925        0
C       23.74923710      40.14286287       5.90088789        0
O       23.37136158      39.43426162       4.70860614        0
C       28.66050473      38.39790704       7.06784511        0
C       29.62129591      37.49695692       7.53560243        0
C       30.69203989      35.16436605       9.21234344        0
C       31.83640487      35.39313941       9.99390411        0
C       31.78328969      35.34993567      11.39578925        0
C       30.58438980      35.07462946      12.04851000        0
O       30.39640706      34.99858005      13.40098207        0
C       31.54513249      35.19549004      14.22830820        0
C       31.12404758      35.00926316      15.65084779        0
C       30.66799234      36.16940061      16.49419482        0
O       31.98787957      35.61942222      16.61893273        0
C       29.43885996      34.84691218      11.28821956        0
C       29.49022247      34.88881831       9.89183181        0
H       30.58906444      33.62106153       6.11500627        0
H       31.29129714      33.06741738       7.63606674        0
H       29.54914885      33.30627466       7.50999458        0
H       32.34475345      36.65226552       7.39656686        0
H       32.01047585      35.67745187       5.96459547        0
H       32.87592635      34.96745218       7.32733667        0
H       28.58290238      34.73399295       5.83738552        0
H       26.93003653      36.29091707       5.03768758        0
H       25.93811608      38.15550317       4.08733607        0
H       25.10281809      37.75922902       5.62317107        0
H       25.20816016      40.48837343       4.23355126        0
H       23.72897593      39.61055282       6.84578115        0
H       23.47945156      41.19024446       5.96669263        0
H       28.68073697      39.42935728       7.41063524        0
H       30.36548085      37.85645164       8.24316183        0
H       32.79808436      35.60686949       9.53649492        0
H       32.70260932      35.53592685      11.94169684        0
H       32.31571469      34.44929689      13.99280600        0
H       31.94891011      36.20560502      14.07781046        0
H       30.74165531      34.01897059      15.86050522        0
H       29.96863990      35.97383059      17.29779589        0
H       30.56803266      37.14342577      16.03178314        0
H       28.49402828      34.63312776      11.78390579        0
H       28.57188797      34.70834412       9.33547021        0
C       48.68818967      38.37148306      57.08708181        0
C       47.87786217      38.50322218      55.77093483        0
C       48.45307464      39.74636674      55.04256773        0
C       48.05799168      37.30547779      54.80699649        0
C       48.95230490      36.25136113      55.05367352        0
C       49.08009035      35.17921769      54.15825650        0
C       48.31650403      35.13751040      52.99338208        0
O       48.34520335      34.15302590      52.04547943        0
C       49.06112951      32.96372264      52.37313277        0
C       48.86763836      31.98957198      51.25759591        0
C       47.68076234      31.06321249      51.22222594        0
O       48.98019133      30.61053900      51.63817357        0
C       47.43560963      36.18255057      52.72538513        0
C       47.30399299      37.24938327      53.61879030        0
C       46.39448009      38.65648097      56.18623954        0
C       45.68103786      39.85911055      56.05422518        0
C       44.34016668      39.96010970      56.45651040        0
C       43.68234538      38.86078755      57.00236823        0
O       42.38605207      38.82505615      57.43670525        0
C       41.63733199      40.03918226      57.34654862        0
C       40.28261562      39.78761259      57.92712429        0
C       39.12911056      39.34383640      57.06827141        0
O       39.26601623      40.70508469      57.50231979        0
C       44.37496422      37.65921326      57.13887341        0
C       45.71074074      37.55715847      56.73940014        0
H       49.76734046      38.33083170      56.89592670        0
H       48.51012591      39.22983546      57.74709142        0
H       48.41989484      37.47171433      57.65277229        0
H       47.89158682      39.99505832      54.13459783        0
H       49.49487284      39.57871214      54.74178398        0
H       48.44474602      40.63363513      55.68758463        0
H       49.57133217      36.23273932      55.94726186        0
H       49.79112045      34.39748911      54.40484662        0
H       50.13164399      33.17972803      52.46452263        0
H       48.68762624      32.54442780      53.31584596        0
H       49.31777924      32.30641985      50.32642648        0
H       46.91009609      31.18231512      51.97619933        0
H       47.32016244      30.72860206      50.25675908        0
H       46.83769619      36.16643381      51.81761656        0
H       46.59325873      38.03795536      53.38067510        0
H       46.14695817      40.74852616      55.63999180        0
H       43.84523280      40.91727463      56.32754465        0
H       42.12498415      40.83087629      57.93091011        0
H       41.55198398      40.35193585      56.29730169        0
H       40.30772922      39.50101948      58.97024132        0
H       38.34805369      38.75047613      57.52760781        0
H       39.31001326      39.12608263      56.02309247        0
H       43.87370174      36.79062166      57.56124777        0
H       46.21436357      36.59945683      56.86030935        0
C       47.69411922      17.15938528      52.35879473        0
C       48.82312185      16.51572300      51.51187050        0
C       48.16257363      15.33366571      50.75476215        0
C       49.40598326      17.45955768      50.43221127        0
C       48.88920079      18.73935659      50.17364168        0
C       49.45167808      19.56781210      49.19136215        0
C       50.54431784      19.13409783      48.44318686        0
O       51.18266201      19.84216150      47.46353622        0
C       50.83832311      21.22040987      47.33621237        0
C       51.72660351      21.82119004      46.29657208        0
C       53.08566988      22.36751207      46.64662704        0
O       51.95425043      23.23047690      46.44260953        0
C       51.05993185      17.86135740      48.67595336        0
C       50.50328645      17.03639503      49.65738635        0
C       49.92172809      16.07844133      52.51098896        0
C       50.19035923      14.73399656      52.81603175        0
C       51.18646034      14.38013039      53.73935784        0
C       51.93564005      15.36323942      54.38078220        0
O       52.92711227      15.15657949      55.29979050        0
C       53.20795538      13.80184352      55.65844042        0
C       54.27090616      13.81594356      56.70989116        0
C       55.73049290      13.72727505      56.35368342        0
O       55.00308792      12.59030953      56.84187343        0
C       51.68326977      16.70225950      54.08843004        0
C       50.69098068      17.05642785      53.16961551        0
H       46.83204812      17.43706966      51.74034179        0
H       47.33009268      16.46291662      53.12463043        0
H       48.02923604      18.06290776      52.88120783        0
H       48.89090788      14.74125039      50.18898946        0
H       47.41426377      15.69483260      50.03816377        0
H       47.64584381      14.65133500      51.44089366        0
H       48.03884498      19.12820706      50.72837763        0
H       49.00416957      20.54434221      49.03775506        0
H       49.79833349      21.32145818      47.00572407        0
H       50.97183416      21.73438352      48.29643468        0
H       51.55624032      21.42599111      45.30415580        0
H       53.45318911      22.22888648      47.65771573        0
H       53.85348262      22.36061499      45.88207573        0
H       51.90844037      17.50727890      48.09589671        0
H       50.94525877      16.05551311      49.81930958        0
H       49.63249449      13.92753350      52.34898206        0
H       51.34499695      13.32371957      53.93071802        0
H       52.31108106      13.32545690      56.07645318        0
H       53.54865909      13.24191236      54.77729555        0
H       53.97627625      14.33409320      57.61298232        0
H       56.44900781      14.18412780      57.02311456        0
H       56.01418258      13.73501332      55.30869453        0
H       52.26219526      17.48182017      54.57959800        0
H       50.52787443      18.11375060      52.96734750        0
C       12.89474583      46.67602545      49.87044108        0
C       13.80918558      47.39995689      50.89315899        0
C       13.10432925      47.25520151      52.26757518        0
C       15.20716372      46.75275176      51.04481000        0
C       15.57427001      45.56179752      50.39776396        0
C       16.85502996      45.01175345      50.55491919        0
C       17.79865427      45.64022224      51.36506495        0
O       19.07512713      45.21037931      51.59831354        0
C       19.55500605      44.14350201      50.78232440        0
C       20.99095555      43.91476835      51.12373437        0
C       22.09049911      44.69618445      50.45406247        0
O       21.77707012      43.34819449      50.06531224        0
C       17.44630680      46.81416359      52.02659289        0
C       16.17193371      47.36580039      51.86754009        0
C       13.93121644      48.86483407      50.40773962        0
C       13.32840659      49.94588244      51.07159218        0
C       13.45162843      51.25846474      50.59001785        0
C       14.17904085      51.51990381      49.43169164        0
O       14.37274727      52.74474370      48.85502293        0
C       13.74859486      53.86531849      49.48554499        0
C       14.04006208      55.07775997      48.66053326        0
C       15.23666087      55.94779002      48.93682764        0
O       13.91728395      56.32421972      49.35835263        0
C       14.78515776      50.45895320      48.76151152        0
C       14.66275457      49.15092997      49.23940866        0
H       12.68895177      45.64192053      50.17216124        0
H       11.92623763      47.18373981      49.77930246        0
H       13.33538808      46.64480808      48.86723049        0
H       13.61692618      47.81235590      53.06025972        0
H       13.06911810      46.20476777      52.58264907        0
H       12.06818207      47.61357845      52.23115620        0
H       14.87791903      45.03082635      49.75339868        0
H       17.07547798      44.08771818      50.03048468        0
H       18.99650826      43.22467506      50.99410014        0
H       19.45094873      44.40211305      49.72104526        0
H       21.14110754      43.54926452      52.13068879        0
H       21.81577617      45.50359646      49.78383795        0
H       23.01162905      44.85728561      51.00150081        0
H       18.17021668      47.31234935      52.66656901        0
H       15.94137333      48.29247469      52.38888896        0
H       12.74544561      49.79795899      51.97602919        0
H       12.96217811      52.04931775      51.14925510        0
H       12.66028152      53.72305191      49.52291771        0
H       14.14115798      53.99157275      50.50337221        0
H       13.65058833      55.01660353      47.65284802        0
H       15.67149312      56.49686875      48.11066203        0
H       15.94170707      55.63918143      49.69854418        0
H       15.35907733      50.64770394      47.85646731        0
H       15.15443972      48.35128368      48.68781195        0
C        8.13783064      12.39438040      19.98261066        0
C        8.27054615      13.93936368      20.02313186        0
C        7.23408543      14.47994101      19.00317022        0
C        7.90462509      14.55941316      21.39348066        0
C        7.39862018      13.80570023      22.46478055        0
C        7.08681066      14.40458679      23.69429347        0
C        7.27272783      15.77301420      23.88024297        0
O        7.01123639      16.47397604      25.02428297        0
C        6.72146063      15.71214047      26.19474689        0
C        6.58353613      16.66271754      27.33851736        0
C        7.78104630      17.11265184      28.13324759        0
O        6.88440419      16.10230554      28.62485180        0
C        7.75926666      16.53837632      22.82316821        0
C        8.07452944      15.94232740      21.59884685        0
C        9.73786265      14.26043814      19.64858932        0
C       10.10688879      14.84994397      18.42832373        0
C       11.45121731      15.11170061      18.12134807        0
C       12.45803167      14.78773059      19.02719966        0
O       13.80011216      14.98387676      18.85213291        0
C       14.21637101      15.55374403      17.60923628        0
C       15.71010248      15.61986922      17.61160029        0
C       16.44226562      16.84312759      18.09400636        0
O       16.27189832      16.56895053      16.69545711        0
C       12.10921913      14.20377753      20.24353183        0
C       10.77079605      13.94170032      20.55050446        0
H        7.10565985      12.07163703      20.16487258        0
H        8.43033226      11.99931634      19.00156253        0
H        8.77316411      11.90234370      20.72814595        0
H        7.30061896      15.56672795      18.87670743        0
H        6.21001978      14.25495203      19.32657697        0
H        7.36460531      14.02523244      18.01343993        0
H        7.23521276      12.73460029      22.37486616        0
H        6.69639531      13.76782788      24.48143006        0
H        5.77365045      15.17587063      26.07193724        0
H        7.52867818      14.99476418      26.38914878        0
H        5.73093828      17.32246105      27.24957189        0
H        8.76696224      16.80881155      27.79822729        0
H        7.74533379      18.08635045      28.60733444        0
H        7.90386304      17.60812086      22.95178594        0
H        8.46713035      16.57232394      20.80344954        0
H        9.36285875      15.11773423      17.68371725        0
H       11.67002982      15.56913760      17.16185400        0
H       13.89740513      14.91699964      16.77324598        0
H       13.78897970      16.55875274      17.49385703        0
H       16.18379444      14.65072380      17.69664467        0
H       17.43412097      16.71478104      18.50977828        0
H       15.87189484      17.65780984      18.52238878        0
H       12.88449661      13.94734551      20.96276960        0
H       10.54091889      13.48739780      21.51290412        0
C       21.79835927      47.94969293      17.98602738        0
C       21.11620125      48.85798649      19.04238525        0
C       20.27264820      49.88208738      18.23837526        0
C       20.12975213      48.10416416      19.96698539        0
C       19.80352188      46.74903402      19.79668059        0
C       18.91048937      46.09994599      20.66199556        0
C       18.32135244      46.79260415      21.71787355        0
O       17.44132597      46.27783216      22.62843164        0
C       17.26924972      44.86194422      22.62900562        0
C       16.36451495      44.51008664      23.76411886        0
C       16.90146535      44.27559226      25.15147760        0
O       16.54293507      43.18528694      24.28595362        0
C       18.62187915      48.14138438      21.89217746        0
C       19.51489173      48.78841936      21.03339810        0
C       22.25811152      49.50222110      19.86542313        0
C       22.59566263      50.86262677      19.77541669        0
C       23.64834952      51.40473424      20.52903434        0
C       24.38941662      50.59792273      21.38872822        0
O       25.43739818      50.99580717      22.17213384        0
C       25.82972042      52.36736540      22.08425075        0
C       27.01914116      52.56250336      22.96901700        0
C       26.86981642      52.99047860      24.40417512        0
O       27.25013679      53.91757976      23.37656724        0
C       24.06669169      49.24609661      21.49144175        0
C       23.01900429      48.70442144      20.74095383        0
H       21.06614471      47.50283416      17.30269853        0
H       22.50492931      48.52186455      17.37164422        0
H       22.36372230      47.13014268      18.44458340        0
H       19.81309834      50.64111633      18.88197016        0
H       19.45923302      49.38273207      17.69715219        0
H       20.87901985      50.40831597      17.49087392        0
H       20.23482919      46.16085715      18.99041534        0
H       18.69741146      45.05255007      20.47483346        0
H       16.79711727      44.53794178      21.69459401        0
H       18.23946015      44.36258625      22.74456663        0
H       15.35746036      44.88644617      23.64457627        0
H       17.95372001      44.46302623      25.33645434        0
H       16.25144236      44.47962339      25.99407128        0
H       18.16529191      48.69606364      22.70805920        0
H       19.73542614      49.83854361      21.21309679        0
H       22.05420315      51.53551871      19.11680510        0
H       23.85839882      52.46325102      20.41423926        0
H       26.11788569      52.61512198      21.05389165        0
H       25.00387437      53.01652929      22.40453614        0
H       27.87308260      51.96378721      22.68060331        0
H       27.63356933      52.68817510      25.11015688        0
H       25.87460892      53.07908682      24.82161028        0
H       24.63493116      48.60343240      22.16092076        0
H       22.79751787      47.64431364      20.85303694        0
C       47.97336983      53.80037294      24.28810974        0
C       47.90562178      55.01586049      25.24947801        0
C       47.69303028      56.25876934      24.34571981        0
C       46.70515847      54.97066682      26.22572631        0
C       45.71279896      53.97850756      26.17424614        0
C       44.64448078      53.96822427      27.08319214        0
C       44.54324248      54.95214343      28.06471641        0
O       43.55785542      55.05269131      29.00676486        0
C       42.67127912      53.94254529      29.13288977        0
C       41.75819168      54.21289045      30.28354856        0
C       42.14362017      53.84865971      31.69310468        0
O       41.23678760      53.03989280      30.92499519        0
C       45.51053587      55.95271636      28.12042585        0
C       46.57800259      55.96181516      27.21817325        0
C       49.24501053      55.03260369      26.02545872        0
C       50.24026886      56.00157672      25.81737787        0
C       51.44774913      55.97268005      26.53230872        0
C       51.68864850      54.97230729      27.47061607        0
O       52.81782841      54.82609607      28.22816260        0
C       53.86564504      55.77601290      28.02188493        0
C       55.01302885      55.39230039      28.90045589        0
C       55.16190833      55.95312820      30.28914109        0
O       55.93290260      56.45409971      29.18699161        0
C       50.71096650      54.00390265      27.69076524        0
C       49.50808476      54.03080842      26.97897553        0
H       47.09120296      53.74802708      23.63864784        0
H       48.85182454      53.86406149      23.63362572        0
H       48.04331247      52.84774710      24.82586770        0
H       47.72181035      57.19666491      24.91233169        0
H       46.71944889      56.21631265      23.84147867        0
H       48.45726879      56.32487972      23.56154491        0
H       45.74332348      53.18666678      25.42986847        0
H       43.90872525      53.17627368      26.98859754        0
H       42.06568740      53.83716677      28.22560495        0
H       43.24088716      53.02068162      29.30532834        0
H       41.09276944      55.04944765      30.11777404        0
H       43.14460328      53.47184756      31.87375123        0
H       41.72735052      54.43243101      32.50554135        0
H       45.44132205      56.73020327      28.87708136        0
H       47.32126284      56.75155014      27.30518392        0
H       50.10673180      56.80065301      25.09393050        0
H       52.17571628      56.75043946      26.32516016        0
H       54.20297787      55.74910699      26.97711460        0
H       53.51320639      56.78564121      28.27179668        0
H       55.41692836      54.41338395      28.67808849        0
H       55.68020697      55.35574075      31.02914847        0
H       54.37577972      56.58436101      30.68422141        0
H       50.88350917      53.21733232      28.42264753        0
H       48.76944540      53.25746438      27.18342185        0
C       21.15334659      43.59326010      63.13852404        0
C       21.45585959      45.01012704      63.69278273        0
C       21.34574174      45.97127091      62.47998723        0
C       20.42641096      45.50163198      64.73914491        0
C       19.27074993      44.77825969      65.07528136        0
C       18.36614098      45.25472457      66.03562306        0
C       18.59615061      46.46786282      66.68147687        0
O       17.79757736      47.03882767      67.63270383        0
C       16.74915596      46.23058439      68.16365070        0
C       16.08330049      47.00187718      69.25570140        0
C       16.59946346      46.96393883      70.66998712        0
O       15.45446591      46.19602765      70.26288217        0
C       19.72965309      47.20580668      66.34903554        0
C       20.63420935      46.73026385      65.39548181        0
C       22.87523110      44.94361468      64.30707034        0
C       23.99085339      45.57320961      63.73109929        0
C       25.26456024      45.47631764      64.31269414        0
C       25.45230789      44.74536624      65.48301875        0
O       26.63452050      44.56772638      66.14718677        0
C       27.79792709      45.16838142      65.57402817        0
C       28.97173030      44.79781000      66.42283598        0
C       29.42666318      45.67191183      67.56043062        0
O       30.10481665      45.66704628      66.29543170        0
C       24.35565624      44.11574368      66.06873703        0
C       23.08651331      44.21062196      65.49031909        0
H       20.19028127      43.56032037      62.61490262        0
H       21.92123668      43.27872950      62.42053828        0
H       21.12440217      42.83448582      63.92909056        0
H       21.63187803      46.99843364      62.73412922        0
H       20.31728576      46.00774135      62.09936849        0
H       21.98387492      45.64853084      61.64813012        0
H       19.04291531      43.82573165      64.60323963        0
H       17.49047515      44.65015170      66.24815791        0
H       16.00660642      46.01598635      67.38674686        0
H       17.15700642      45.28970589      68.55406927        0
H       15.56754291      47.88592873      68.90564017        0
H       17.52867920      46.44005254      70.86668238        0
H       16.42410867      47.82569498      71.30303509        0
H       19.91906735      48.15682696      66.84044847        0
H       21.51562733      47.32901903      65.17574884        0
H       23.90195490      46.15124504      62.81583798        0
H       26.08521008      45.98627912      63.81849831        0
H       27.96542261      44.78115028      64.56009537        0
H       27.68003882      46.25967293      65.53933817        0
H       29.14939443      43.73147257      66.46994653        0
H       29.92918019      45.20218616      68.39706113        0
H       28.83886428      46.54487343      67.81532669        0
H       24.48601590      43.54311820      66.98482760        0
H       22.25591495      43.70640466      65.98156107        0
C       19.10753361       6.39134642      22.13267137        0
C       19.26073552       5.38259802      23.30108249        0
C       18.57950808       4.07368333      22.82205435        0
C       20.73132307       5.02161589      23.62245386        0
C       21.81716110       5.48102126      22.85975465        0
C       23.13662805       5.13753333      23.18932301        0
C       23.40054496       4.32441481      24.28974208        0
O       24.63493275       3.92080116      24.71628119        0
C       25.76312273       4.55158034      24.11324367        0
C       26.99083810       4.05052492      24.80062221        0
C       27.50930746       4.70339351      26.05482305        0
O       28.10627341       4.95284095      24.77113732        0
C       22.33427802       3.84723101      25.04821203        0
C       21.01925131       4.19218365      24.72365050        0
C       18.57263786       6.02920676      24.52778840        0
C       17.36076704       5.56209998      25.06250877        0
C       16.76219323       6.18623447      26.16801105        0
C       17.36100182       7.29373497      26.76304866        0
O       16.88409312       7.99446199      27.83628743        0
C       15.63702495       7.56712350      28.38856902        0
C       15.28218220       8.50245928      29.49980502        0
C       15.68563216       8.22230820      30.92243744        0
O       14.35105659       7.97653816      30.45484445        0
C       18.56468422       7.76923028      26.24614617        0
C       19.16178807       7.14920718      25.14463297        0
H       19.50400035       5.98666685      21.19362515        0
H       18.05192186       6.63490691      21.95817104        0
H       19.62603559       7.33704938      22.32856215        0
H       18.54420790       3.30990402      23.60749720        0
H       19.11951414       3.63768093      21.97222038        0
H       17.54927085       4.25137666      22.48979287        0
H       21.66864158       6.11883372      21.99189585        0
H       23.93111792       5.52220437      22.55822547        0
H       25.82434551       4.28318797      23.05247556        0
H       25.68644102       5.64151621      24.21414324        0
H       27.17489869       2.99687351      24.63926458        0
H       26.91726998       5.48999537      26.51016566        0
H       28.06788928       4.09499913      26.75622545        0
H       22.52460647       3.20715173      25.90604512        0
H       20.21561486       3.81183969      25.35070306        0
H       16.84835972       4.70561775      24.63401363        0
H       15.82608126       5.77639464      26.53336306        0
H       14.84729893       7.61582289      27.62697621        0
H       15.72483643       6.53973339      28.76642736        0
H       15.15722174       9.52747106      29.17639325        0
H       15.83353016       9.06436586      31.58740454        0
H       16.31509903       7.36539431      31.12740462        0
H       19.04607696       8.63214411      26.70194909        0
H       20.10369359       7.55021476      24.77388466        0
C       52.28093773      31.87385267      15.06244611        0
C       52.76633406      32.02786291      16.52767646        0
C       53.58074151      30.74505541      16.84063308        0
C       53.72682073      33.22266424      16.74245669        0
C       54.19766350      34.02567558      15.69113016        0
C       55.06122314      35.10519225      15.92882918        0
C       55.47539579      35.40573924      17.22492659        0
O       56.30868405      36.42646579      17.58865837        0
C       56.61614237      37.39504043      16.58781784        0
C       57.43636672      38.46855036      17.22471600        0
C       56.79268483      39.63929740      17.91976465        0
O       57.33728372      39.75387526      16.59434948        0
C       55.03024121      34.61010712      18.27788109        0
C       54.16626647      33.53676554      18.04311897        0
C       51.49304040      32.18334169      17.39424339        0
C       51.03570797      31.18659159      18.27178645        0
C       49.86741226      31.36157240      19.02970241        0
C       49.12809238      32.53706798      18.92570690        0
O       47.97553094      32.83235677      19.60002759        0
C       47.46265836      31.82928040      20.47957956        0
C       46.17979137      32.33643744      21.05634281        0
C       46.14715212      33.09270588      22.35716264        0
O       45.78029139      31.70714856      22.28112177        0
C       49.56867605      33.53716564      18.06093756        0
C       50.73167417      33.36415136      17.30476665        0
H       53.11574855      31.68361743      14.37712817        0
H       51.58520222      31.03099408      14.96431492        0
H       51.75578560      32.76596270      14.70199286        0
H       53.90009177      30.69859633      17.88819328        0
H       54.48729305      30.69483437      16.22454496        0
H       53.00161179      29.83685215      16.63293867        0
H       53.90552038      33.83675647      14.66107985        0
H       55.39182548      35.68511606      15.07334070        0
H       57.20577113      36.93630455      15.78600052        0
H       55.69221557      37.81603320      16.17171044        0
H       58.40908272      38.12885690      17.55415161        0
H       55.71427552      39.64137031      18.03645579        0
H       57.33514558      40.11822284      18.72629391        0
H       55.34973627      34.82905286      19.29365157        0
H       53.82873735      32.94949286      18.89451364        0
H       51.57077251      30.24848545      18.38751868        0
H       49.56800586      30.55357346      19.68943714        0
H       47.25311216      30.90628124      19.92260078        0
H       48.18682859      31.62351931      21.27911572        0
H       45.41981753      32.53087318      20.31102813        0
H       45.35142436      33.81116873      22.51125554        0
H       47.08393170      33.34165640      22.83987287        0
H       49.00310442      34.46242963      17.97076663        0
H       51.04282678      34.17131071      16.64361217        0
C       48.67294934      21.74716813      11.08265971        0
C       49.71687395      20.76030429      11.66793732        0
C       48.90684239      19.53609621      12.16989338        0
C       50.72167944      20.22377908      10.61973789        0
C       50.63076340      20.51928496       9.24998676        0
C       51.56706304      20.01961786       8.33278009        0
C       52.61618187      19.21067113       8.76485750        0
O       53.59071265      18.66497143       7.97678746        0
C       53.66580179      19.12945802       6.63032430        0
C       54.85793109      18.49532272       5.99194278        0
C       56.22761633      19.11162947       6.10237804        0
O       55.43216559      19.24674063       4.91265350        0
C       52.71260910      18.89492317      10.11796919        0
C       51.78292759      19.39561631      11.03373467        0
C       50.45353761      21.52359827      12.79536696        0
C       50.28393757      21.23014217      14.15840212        0
C       50.96036729      21.95632967      15.15090618        0
C       51.82065848      22.99462258      14.80298991        0
O       52.53378956      23.78031553      15.66579486        0
C       52.36317842      23.53127099      17.06282057        0
C       53.18020822      24.53505154      17.81148521        0
C       54.59922259      24.24574007      18.22116389        0
O       53.51237598      24.15925518      19.15466424        0
C       52.00182958      23.29794018      13.45491322        0
C       51.32826437      22.57612834      12.46517056        0
H       48.04693423      21.26901534      10.31961696        0
H       47.99950048      22.11844630      11.86541599        0
H       49.14195907      22.62409752      10.62157803        0
H       49.53532082      18.80540900      12.69203940        0
H       48.42894030      19.01107604      11.33330159        0
H       48.10749444      19.83440695      12.85939676        0
H       49.83331895      21.14622889       8.85875113        0
H       51.43952562      20.28190064       7.28759493        0
H       52.77112877      18.82578759       6.07502603        0
H       53.75831140      20.22266727       6.61144254        0
H       54.76896435      17.42268821       5.88407245        0
H       56.35330943      19.97981337       6.74037940        0
H       57.08971437      18.45685417       6.05569865        0
H       53.52242112      18.26011545      10.46872218        0
H       51.90253551      19.13867717      12.08414612        0
H       49.62105102      20.43436385      14.48558625        0
H       50.78624494      21.67970852      16.18575813        0
H       51.30979644      23.65895539      17.34592042        0
H       52.69165248      22.51208563      17.30650930        0
H       52.87983412      25.55814723      17.62733833        0
H       55.28143204      25.08036665      18.32654367        0
H       55.05895000      23.32159970      17.89381579        0
H       52.67286850      24.10481889      13.16721713        0
H       51.50029977      22.84310223      11.42374069        0
C       26.42595548      46.93856290      30.98111473        0
C       26.55472857      48.05712210      32.04810654        0
C       26.70638555      49.38224158      31.25573355        0
C       25.29737187      48.21680956      32.93679628        0
C       24.11389667      47.49066597      32.72725028        0
C       22.99834883      47.65864229      33.56087446        0
C       23.04043189      48.55898540      34.62358200        0
O       22.02768764      48.81244615      35.50599887        0
C       20.90513801      47.93334784      35.46834659        0
C       19.98345519      48.31816881      36.57886197        0
C       20.15606115      47.76474748      37.96882587        0
O       19.15755212      47.25258009      37.07043525        0
C       24.20113600      49.29879923      34.83653206        0
C       25.31502495      49.12934879      34.00938898        0
C       27.79274182      47.70010665      32.90615769        0
C       28.99565195      48.42344630      32.85583382        0
C       30.10047244      48.05774800      33.64043957        0
C       30.02835216      46.95839588      34.49215689        0
O       31.02701035      46.49391385      35.30286030        0
C       32.27644651      47.18638243      35.25586358        0
C       33.22872703      46.47796941      36.16521756        0
C       33.38327076      46.87797444      37.60787196        0
O       34.33784263      47.27009471      36.61028872        0
C       28.84160817      46.23056140      34.55564691        0
C       27.74053360      46.59301117      33.77426484        0
H       25.61285494      47.14450406      30.27456326        0
H       27.34793464      46.84669046      30.39323537        0
H       26.23253997      45.95676283      31.42858614        0
H       26.89916660      50.24017146      31.91019302        0
H       25.79458561      49.60770769      30.68854019        0
H       27.52901999      49.32952374      30.53195543        0
H       24.02675310      46.77440085      31.91397791        0
H       22.11287966      47.07007656      33.34406858        0
H       20.37011129      48.04358377      34.51829072        0
H       21.23432006      46.89344992      35.58781416        0
H       19.54140334      49.29721010      36.45172350        0
H       21.02667944      47.15187767      38.17619550        0
H       19.81600692      48.36398321      38.80512866        0
H       24.24645005      50.00921393      35.65815338        0
H       26.20791302      49.71461099      34.21892904        0
H       29.10820404      49.28580713      32.20514419        0
H       31.00060125      48.65802754      33.55565158        0
H       32.68572859      47.16351290      34.23702719        0
H       32.14228241      48.22758485      35.57822320        0
H       33.41746469      45.45237197      35.87644873        0
H       33.68838316      46.12005518      38.31891414        0
H       32.73027604      47.64219794      38.01049069        0
H       28.76902773      45.37056258      35.21840602        0
H       26.83127812      45.99971240      33.85610891        0
C       29.13884022      42.57819153      39.65027957        0
C       28.62946347      41.42890344      40.55907049        0
C       27.45200240      42.02473034      41.37477396        0
C       28.05658694      40.22331382      39.77511797        0
C       27.91373473      40.21590789      38.37821210        0
C       27.39741803      39.09934652      37.70419424        0
C       27.01022391      37.96375954      38.41289652        0
O       26.49725587      36.81535687      37.87755746        0
C       26.55612181      36.68354449      36.45857560        0
C       26.05399969      35.32258848      36.10290308        0
C       26.97160016      34.12857892      36.08245389        0
O       26.57093258      34.79416439      34.87294867        0
C       27.13069993      37.95979422      39.80047572        0
C       27.64906408      39.06996444      40.47311859        0
C       29.83372367      40.99614914      41.43020178        0
C       29.91704851      41.25654657      42.80787941        0
C       31.03398188      40.85945889      43.55937857        0
C       32.09473192      40.19447335      42.94962256        0
O       33.23778701      39.75903544      43.56127658        0
C       33.37200688      40.03331980      44.95754492        0
C       34.70843544      39.52821576      45.39849896        0
C       34.88221368      38.13607885      45.94338012        0
O       34.82404976      39.28165851      46.80616763        0
C       32.02754834      39.92653252      41.58366891        0
C       30.91613606      40.32203906      40.83358203        0
H       28.33043092      43.00283053      39.04289555        0
H       29.55689586      43.39772080      40.24835105        0
H       29.92747783      42.24800058      38.96427937        0
H       27.06758850      41.32436835      42.12527009        0
H       26.61254670      42.28743021      40.71885833        0
H       27.74647540      42.94123141      41.90077094        0
H       28.20105721      41.07437995      37.77612143        0
H       27.30933680      39.15774270      36.62423977        0
H       25.90872142      37.42858278      35.98233787        0
H       27.58790610      36.81381652      36.10861650        0
H       25.00543340      35.17862732      36.32624095        0
H       27.99207534      34.25558481      36.42754473        0
H       26.54632528      33.15172159      36.27997280        0
H       26.82716595      37.08308717      40.36709367        0
H       27.74181537      39.02096127      41.55602389        0
H       29.12078479      41.77653845      43.33257331        0
H       31.03686039      41.09031894      44.61978027        0
H       33.33215790      41.11588321      45.13790830        0
H       32.57027396      39.53431149      45.51811002        0
H       35.53746634      40.00747180      44.89463305        0
H       35.84429542      37.65444115      45.81872051        0
H       34.03338857      37.46376169      45.93817989        0
H       32.84742944      39.40536615      41.09346883        0
H       30.90190860      40.09049719      39.76979946        0
C       51.60339191      54.36289971      68.71332577        0
C       52.75729121      54.74851218      69.67563973        0
C       53.19031645      56.18041619      69.26462093        0
C       52.32848130      54.82736971      71.16094069        0
C       50.99880803      54.66949221      71.58384881        0
C       50.65240099      54.73988969      72.94128708        0
C       51.62894442      54.97162578      73.90792937        0
O       51.42346264      55.05984737      75.25646450        0
C       50.13734775      54.67563721      75.73879246        0
C       50.16925432      54.73821984      77.23073623        0
C       50.64063936      53.56921138      78.05492249        0
O       49.24302702      53.86153634      77.88858768        0
C       52.95064241      55.14589933      73.50463121        0
C       53.29802547      55.07169004      72.15280070        0
C       53.86318902      53.68338480      69.47845368        0
C       55.08760863      53.95644207      68.84680357        0
C       56.05884115      52.95784873      68.67508143        0
C       55.82684749      51.66208301      69.12935996        0
O       56.68185321      50.60010005      69.02231268        0
C       57.92572077      50.83234068      68.35773014        0
C       58.66616245      49.53454525      68.30218738        0
C       59.63928538      49.13773182      69.37955007        0
O       60.08263092      49.65731076      68.11716322        0
C       54.61784518      51.37432611      69.75995069        0
C       53.64912705      52.36759828      69.93108975        0
H       50.79746392      55.10653758      68.72888305        0
H       51.95975339      54.29579540      67.67766572        0
H       51.16025322      53.39185147      68.96285540        0
H       54.06932477      56.52640531      69.82064369        0
H       52.38591480      56.90305740      69.45076627        0
H       53.43291636      56.23929093      68.19642600        0
H       50.19749257      54.48557461      70.87243506        0
H       49.60699362      54.61262124      73.20281381        0
H       49.37384250      55.37394024      75.37762172        0
H       49.89546969      53.65907668      75.40394817        0
H       50.29423199      55.74086026      77.61698571        0
H       51.05229457      52.70740983      77.54069895        0
H       51.08147677      53.76987132      79.02421123        0
H       53.72231516      55.33322592      74.24708251        0
H       54.34382926      55.19749055      71.88048353        0
H       55.31820583      54.94825556      68.46883255        0
H       56.98406132      53.23352966      68.17937582        0
H       57.74917865      51.17669136      67.32995687        0
H       58.51061724      51.58354036      68.90509963        0
H       58.14423403      48.76443248      67.74957857        0
H       59.79359520      48.08198025      69.56581139        0
H       59.74067532      49.77247727      70.25096259        0
H       54.42301029      50.36707008      70.12270431        0
H       52.71952836      52.10177850      70.43172287        0
C       49.13806440      34.42247909      63.02074109        0
C       48.73195375      35.84207254      63.49619590        0
C       48.81857529      36.74958725      62.24092295        0
C       47.27325119      35.93371801      64.00610113        0
C       46.37120746      34.85932800      63.94436918        0
C       45.05908177      34.98064927      64.42520140        0
C       44.61805577      36.18129610      64.97808408        0
O       43.37118278      36.42706663      65.48152959        0
C       42.51050014      35.30206028      65.64866828        0
C       41.25877292      35.77633697      66.31129292        0
C       41.15119146      35.86769699      67.81067519        0
O       40.56880372      34.77757579      67.07657594        0
C       45.49495574      37.26200152      65.03311575        0
C       46.80403850      37.14132479      64.55838718        0
C       49.73047106      36.22927443      64.61397339        0
C       50.72318414      37.20931822      64.45032613        0
C       51.61882305      37.52075409      65.48512486        0
C       51.54361513      36.85734018      66.70718238        0
O       52.35290108      37.05985293      67.79085511        0
C       53.39475469      38.02829024      67.65127576        0
C       54.18382562      38.04036022      68.92124947        0
C       53.84702823      38.98038473      70.04733159        0
O       54.93729042      39.23850838      69.15020361        0
C       50.56336381      35.88323706      66.88708719        0
C       49.67102230      35.57131147      65.85717357        0
H       48.52771550      34.08937834      62.17263889        0
H       50.18482316      34.40134924      62.69220209        0
H       49.03642894      33.67288379      63.81405612        0
H       48.64063123      37.80532043      62.47605859        0
H       48.07302947      36.45599147      61.49133282        0
H       49.80156616      36.68134667      61.75880932        0
H       46.66281439      33.89993347      63.52416778        0
H       44.41016091      34.11459122      64.34573298        0
H       42.24826118      34.87817020      64.67267667        0
H       43.00199588      34.53718204      66.26300875        0
H       40.67610219      36.45073141      65.69828163        0
H       42.03791011      35.67432654      68.40475068        0
H       40.47660941      36.60336851      68.23239685        0
H       45.16300155      38.20669154      65.45640192        0
H       47.46261502      38.00401466      64.63409142        0
H       50.82989250      37.75330614      63.51629100        0
H       52.36245803      38.28801380      65.29518820        0
H       54.06525411      37.74935246      66.82745135        0
H       52.96383016      39.01993479      67.45901720        0
H       54.65343774      37.09161842      69.14533184        0
H       54.09390500      38.67758616      71.05752022        0
H       52.96448558      39.60199527      69.96212421        0
H       50.49033726      35.35802048      67.83731358        0
H       48.91818948      34.80627563      66.03995846        0
C        4.27616655       9.18006271       4.20756553        0
C        4.82514795       7.98531169       5.03061967        0
C        3.89130670       6.78793563       4.71277138        0
C        6.25318773       7.55113883       4.62023974        0
C        6.94348185       8.11557037       3.53547310        0
C        8.24069867       7.69970468       3.20099357        0
C        8.87744237       6.70745558       3.94378235        0
O       10.13437743       6.21727373       3.72380775        0
C       10.94635853       6.92278710       2.78717185        0
C       12.30042168       6.29243503       2.78741321        0
C       13.36190573       6.71447395       3.76884196        0
O       13.37076384       7.16838851       2.40490482        0
C        8.20135818       6.12590495       5.01364929        0
C        6.91040918       6.54229198       5.35084399        0
C        4.78936334       8.42548959       6.51431490        0
C        3.88737356       7.89420814       7.45074427        0
C        3.87816162       8.33135120       8.78445745        0
C        4.76974616       9.31191670       9.21197018        0
O        4.86289952       9.82802557      10.47500456        0
C        3.94031074       9.33352318      11.44820005        0
C        4.18030328      10.07237153      12.72574400        0
C        5.12782360       9.54833853      13.77108326        0
O        3.70564345       9.40724000      13.90387231        0
C        5.67275132       9.84857356       8.29615558        0
C        5.68271521       9.41482870       6.96722401        0
H        4.19442403       8.93420530       3.14190539        0
H        3.27379163       9.46685404       4.54974021        0
H        4.91016874      10.07024001       4.29240191        0
H        4.12840863       5.90262462       5.31404710        0
H        3.97408268       6.49373828       3.65895998        0
H        2.83831100       7.03618233       4.89425138        0
H        6.49461048       8.89373645       2.92308947        0
H        8.71877990       8.17290635       2.34953095        0
H       10.52309361       6.83733500       1.77991993        0
H       11.01726127       7.98089451       3.06895640        0
H       12.30338405       5.27859246       2.41030535        0
H       13.09438969       7.42192931       4.54635714        0
H       14.11078460       5.98686701       4.05848186        0
H        8.68332690       5.34652595       5.59852410        0
H        6.42275381       6.07418936       6.20334628        0
H        3.16709329       7.13131840       7.16980524        0
H        3.15663607       7.88075056       9.45833899        0
H        2.90818309       9.52360477      11.12471291        0
H        4.09010099       8.25562149      11.59553991        0
H        4.02022777      11.13929509      12.64262115        0
H        5.62038690      10.26282026      14.41916769        0
H        5.70569576       8.65893909      13.55296883        0
H        6.37741472      10.61367161       8.61582729        0
H        6.40635507       9.85754781       6.28473405        0
C       38.68554301      55.06165337      45.53170593        0
C       37.40381178      55.57750554      46.23689407        0
C       37.29657207      57.08163733      45.87236200        0
C       36.10310716      54.90789383      45.73092664        0
C       36.07569287      53.99813154      44.66163312        0
C       34.87631564      53.40644279      44.23855987        0
C       33.67513836      53.71266335      44.87506448        0
O       32.44490214      53.20547604      44.56228231        0
C       32.41229366      52.11318419      43.64566657        0
C       30.99741595      51.64712382      43.53731707        0
C       30.42846111      50.63718742      44.49876726        0
O       30.84577067      50.26722121      43.17384494        0
C       33.68181936      54.62483675      45.92758588        0
C       34.87675688      55.21192518      46.35311994        0
C       37.60399068      55.31666791      47.74960051        0
C       37.82065121      56.34342150      48.68318542        0
C       38.01206912      56.06301650      50.04505985        0
C       37.99340056      54.74854693      50.50442908        0
O       38.16992293      54.33885676      51.79721504        0
C       38.42349367      55.35375547      52.77112194        0
C       38.64330567      54.68156390      54.08848788        0
C       37.50863293      54.44109614      55.04756688        0
O       38.43731039      55.51958478      55.23346612        0
C       37.77791615      53.71767510      49.59173799        0
C       37.58785783      53.99520270      48.23484843        0
H       38.66782475      55.27118993      44.45535110        0
H       39.58175524      55.54607569      45.93941526        0
H       38.82193553      53.98096987      45.65455486        0
H       36.47112959      57.57970053      46.39399710        0
H       37.12515741      57.21423004      44.79674190        0
H       38.21700372      57.62491218      46.11938302        0
H       36.98345424      53.72273827      44.13043682        0
H       34.92174014      52.71393289      43.40439159        0
H       32.74746640      52.44064501      42.65498986        0
H       33.05638635      51.29977156      44.00277370        0
H       30.33766855      52.37545289      43.08524846        0
H       31.03876072      50.32284539      45.33859537        0
H       29.36380816      50.66280949      44.69871800        0
H       32.75144850      54.87782257      46.42979326        0
H       34.84168523      55.90728727      47.18913999        0
H       37.85020260      57.38553626      48.37846472        0
H       38.17430911      56.90121460      50.71502890        0
H       39.33178696      55.91302216      52.50980509        0
H       37.56898863      56.04104703      52.83002573        0
H       39.49241763      54.01085814      54.09319192        0
H       37.58103688      53.59882619      55.72466005        0
H       36.50136020      54.68941241      54.73727319        0
H       37.75797224      52.68556028      49.93591349        0
H       37.41944490      53.16109997      47.55561567        0
C       51.46012821      36.14753623      77.01702418        0
C       51.71236558      35.92962662      75.50205869        0
C       51.98846466      37.33772030      74.91228084        0
C       52.96386875      35.07121155      75.19697050        0
C       53.84631953      34.62237060      76.19277671        0
C       54.96569920      33.83883016      75.87552940        0
C       55.22931800      33.48709579      74.55321172        0
O       56.27964208      32.73024464      74.11440826        0
C       57.05693711      32.06786967      75.11010955        0
C       58.06621101      31.21585467      74.41278076        0
C       57.73979708      29.81223578      73.97531581        0
O       58.50856676      30.07429712      75.16138429        0
C       54.37287360      33.93668170      73.55107314        0
C       53.25466091      34.71384870      73.86609625        0
C       50.43534684      35.25908892      74.93992796        0
C       49.53062239      35.92046554      74.09328744        0
C       48.37597477      35.28052987      73.61658946        0
C       48.09833623      33.96455888      73.97761029        0
O       47.01247804      33.22922681      73.58966638        0
C       46.05378396      33.87911034      72.75218850        0
C       44.93402621      32.91949408      72.50542737        0
C       44.93373581      32.00132384      71.31290784        0
O       44.14597543      33.20081274      71.34115764        0
C       48.98646175      33.29292987      74.81563345        0
C       50.13655118      33.92911968      75.29192099        0
H       52.28797571      36.68790586      77.49181721        0
H       50.55133101      36.73936733      77.18409255        0
H       51.33064945      35.20274155      77.55755157        0
H       52.09110009      37.32040895      73.82109264        0
H       52.91761085      37.75820352      75.31700744        0
H       51.18477246      38.04354378      75.15570107        0
H       53.68774221      34.86642990      77.24031189        0
H       55.61061133      33.52641932      76.69036551        0
H       57.58793146      32.80248240      75.72606477        0
H       56.41044412      31.45095170      75.74688270        0
H       58.79972208      31.78466761      73.85734470        0
H       56.72016814      29.45996489      74.08867281        0
H       58.26497724      29.40706808      73.11849164        0
H       54.56923143      33.67503520      72.51435296        0
H       52.60157737      35.03164710      73.05605053        0
H       49.69564389      36.94875002      73.78485580        0
H       47.71752545      35.84651602      72.96554372        0
H       45.64746375      34.76595646      73.25663896        0
H       46.52124402      34.17397064      71.80321184        0
H       44.42036393      32.61597553      73.40813829        0
H       44.40801496      31.05783910      71.39396518        0
H       45.80341074      31.98298656      70.66802742        0
H       48.78452309      32.26340636      75.10445459        0
H       50.80586031      33.36776033      75.94180434        0
C        2.91485492      41.81283917      20.75384670        0
C        4.43636467      41.53649483      20.63190166        0
C        4.69929371      40.24682256      21.45312647        0
C        4.90073641      41.23982582      19.18533269        0
C        4.01251146      41.12648924      18.10365859        0
C        4.47459016      40.86474550      16.80536518        0
C        5.83720969      40.70863646      16.55912553        0
O        6.41320808      40.45429613      15.34582850        0
C        5.57353523      40.56443324      14.19814887        0
C        6.42326154      40.36153473      12.98669182        0
C        7.16243861      41.50678560      12.34631278        0
O        5.93505509      40.99852275      11.79709516        0
C        6.73101414      40.80260734      17.62316938        0
C        6.27247944      41.06770219      18.91665243        0
C        5.15282431      42.78858071      21.19346660        0
C        5.84941836      42.79162588      22.41309481        0
C        6.47378271      43.95303394      22.89400045        0
C        6.41392708      45.13920668      22.16694450        0
O        6.97140212      46.33659859      22.52159353        0
C        7.66247396      46.38621910      23.77170140        0
C        8.13180829      47.79022791      23.98169283        0
C        9.49605807      48.23889213      23.53151236        0
O        9.21944164      47.92933860      24.90548400        0
C        5.72826044      45.15330400      20.95376775        0
C        5.10519195      43.99759878      20.47374265        0
H        2.31959567      40.94494117      20.44533621        0
H        2.63768607      42.04135070      21.79069199        0
H        2.59622410      42.66485018      20.14219056        0
H        5.76598871      40.00253260      21.51644786        0
H        4.19690985      39.38296589      21.00004312        0
H        4.32094629      40.33564707      22.47895531        0
H        2.93976825      41.24041600      18.23887831        0
H        3.73708280      40.78571158      16.01333829        0
H        4.80305537      39.78532124      14.21704289        0
H        5.09797924      41.55291262      14.17029147        0
H        6.82851933      39.36172917      12.90762941        0
H        7.14595080      42.47251022      12.83996435        0
H        8.07819290      41.28964440      11.80931513        0
H        7.79641763      40.67723201      17.44709995        0
H        7.00427201      41.14930585      19.71759465        0
H        5.92275230      41.89570891      23.02275543        0
H        6.99627108      43.88915575      23.84304306        0
H        6.98321033      46.11977871      24.59247716        0
H        8.51605053      45.69539938      23.75779598        0
H        7.32603884      48.51083171      24.02991322        0
H        9.63206924      49.28193938      23.27330786        0
H       10.11467619      47.54797869      22.97250277        0
H        5.67494936      46.07195169      20.37294085        0
H        4.58264405      44.05057744      19.52002132        0
C       46.05751696       4.23133698       4.25343233        0
C       45.03627766       5.36896042       3.99054090        0
C       44.99311234       5.55122992       2.45050486        0
C       43.59368262       5.02459895       4.43388064        0
C       43.22474171       3.76322214       4.92847013        0
C       41.90735435       3.49362568       5.32772016        0
C       40.92720889       4.48020453       5.23989616        0
O       39.61440379       4.34631989       5.59650587        0
C       39.25881789       3.16626051       6.31439705        0
C       37.82004401       3.27919259       6.69911367        0
C       37.39946171       3.97379431       7.96746165        0
O       37.45247998       2.54036203       7.87310923        0
C       41.27236819       5.73239659       4.73711753        0
C       42.58559851       6.00388287       4.34297408        0
C       45.56300429       6.61107910       4.74954609        0
C       46.09410789       7.73823195       4.10131702        0
C       46.57468677       8.83887912       4.82767059        0
C       46.53717230       8.83663145       6.21971457        0
O       46.97434086       9.83632231       7.04421657        0
C       47.54952400      10.98690914       6.42121860        0
C       48.00872041      11.91293755       7.50159903        0
C       47.11594660      12.99935046       8.03807029        0
O       48.16299869      13.27982588       7.09724431        0
C       46.01175795       7.72687517       6.87889290        0
C       45.53339421       6.62948880       6.15694811        0
H       45.80561307       3.32331480       3.69236247        0
H       47.06775788       4.52988688       3.94623616        0
H       46.11291214       3.95851860       5.31365547        0
H       44.36763410       6.39901720       2.14791749        0
H       44.58531086       4.65834753       1.96021780        0
H       45.99440598       5.71626317       2.03392780        0
H       43.94926980       2.95770662       5.01927473        0
H       41.68579607       2.49806431       5.69817872        0
H       39.37983865       2.28404002       5.67560704        0
H       39.88659215       3.06325357       7.20843847        0
H       37.14630802       3.27217793       5.85287110        0
H       38.15779799       4.48065098       8.55449671        0
H       36.42033901       4.43695257       7.99788962        0
H       40.51692353       6.51004780       4.65733049        0
H       42.81788110       6.99940183       3.97058345        0
H       46.15220931       7.79040076       3.01797322        0
H       46.97225694       9.67883592       4.26716463        0
H       48.42010009      10.69721699       5.81769714        0
H       46.80470803      11.48191605       5.78385251        0
H       48.76502786      11.48261648       8.14478040        0
H       47.26421681      13.32491317       9.06039169        0
H       46.09303946      13.05513835       7.68722819        0
H       45.97327583       7.71141841       7.96627312        0
H       45.12806084       5.78400119       6.71039456        0
C       47.30932974      40.17827994       5.81699620        0
C       47.16906735      38.70391992       6.27831791        0
C       45.65695623      38.48743229       6.54933360        0
C       47.57485869      37.67267054       5.19754342        0
C       47.93372063      38.03508578       3.88923118        0
C       48.30345500      37.06989134       2.94092296        0
C       48.32128024      35.71827806       3.27938979        0
O       48.66295029      34.68465734       2.45268392        0
C       49.25244449      35.02897539       1.20036971        0
C       49.64826225      33.76195049       0.51567487        0
C       50.98329648      33.11470151       0.77417050        0
O       50.73794489      33.89387784      -0.40867702        0
C       47.95332624      35.33980962       4.56829543        0
C       47.58887337      36.30075915       5.51559573        0
C       48.05460022      38.55602362       7.53940746        0
C       47.52862591      38.39292778       8.83149735        0
C       48.36678229      38.27670318       9.95129889        0
C       49.75082807      38.32316136       9.80481430        0
O       50.67595453      38.22732940      10.80744036        0
C       50.17750595      38.09124214      12.14004736        0
C       51.34927341      38.06644803      13.06846435        0
C       51.99836779      36.77276460      13.48101640        0
O       51.09148806      37.47110499      14.34705795        0
C       50.28952350      38.48276040       8.52948271        0
C       49.45609376      38.59944276       7.41320626        0
H       46.65567728      40.39989429       4.96471410        0
H       47.03447549      40.87104614       6.62236467        0
H       48.33473476      40.42524231       5.51845686        0
H       45.44622812      37.49869122       6.97302000        0
H       45.07543327      38.57187928       5.62271493        0
H       45.25923236      39.23531086       7.24636641        0
H       47.93822803      39.07494912       3.57188974        0
H       48.56683600      37.41436544       1.94621792        0
H       48.52389123      35.55182417       0.57040860        0
H       50.13001766      35.66854010       1.35798740        0
H       48.80663589      33.14247243       0.23637596        0
H       51.61991026      33.53438426       1.54564769        0
H       51.06339776      32.04041541       0.65748351        0
H       47.95685852      34.28849146       4.84492089        0
H       47.32355681      35.96536902       6.51599994        0
H       46.45680819      38.35549079       9.00335896        0
H       47.89781287      38.15239016      10.92205651        0
H       49.54595118      38.95142360      12.39944832        0
H       49.59670311      37.16375309      12.23197307        0
H       51.94268412      38.97073322      13.03697664        0
H       53.04923229      36.78850019      13.74284144        0
H       51.65632512      35.84989296      13.02951198        0
H       51.36921658      38.51826762       8.39864839        0
H       49.91746585      38.71957742       6.43435445        0
C       57.27770361       4.84043566       7.93899831        0
C       57.02006601       6.31333068       7.52616441        0
C       58.32474770       6.79430716       6.83822276        0
C       55.88653001       6.47834573       6.48497203        0
C       55.22703143       5.38992235       5.89150445        0
C       54.19832602       5.58211170       4.95746979        0
C       53.80620615       6.86891376       4.59398877        0
O       52.82135926       7.18981182       3.70199446        0
C       51.98026057       6.12589180       3.26043312        0
C       50.91562653       6.71255129       2.39255304        0
C       49.63766245       7.25445778       2.97668725        0
O       49.69347722       5.96166620       2.35057539        0
C       54.46017555       7.95991903       5.16138438        0
C       55.48243722       7.77005396       6.09549361        0
C       56.68525236       7.07874426       8.82940288        0
C       57.55484861       8.01314935       9.41543617        0
C       57.21916254       8.67551598      10.60646726        0
C       56.00647856       8.41685167      11.24025679        0
O       55.56067541       8.98609599      12.40108503        0
C       56.43213647       9.91952773      13.04301412        0
C       55.77560656      10.36402159      14.31069134        0
C       54.89682400      11.58505791      14.35486154        0
O       56.25134991      11.61339957      14.82877546        0
C       55.13105274       7.49376137      10.67133743        0
C       55.46421604       6.83260934       9.48551569        0
H       57.59617521       4.23029023       7.08514958        0
H       58.07080138       4.77591317       8.69459146        0
H       56.38732073       4.36666875       8.36834066        0
H       58.29382781       7.85996905       6.58340101        0
H       58.50302383       6.24467306       5.90546213        0
H       59.20214589       6.63437254       7.47693608        0
H       55.49191717       4.36503586       6.13946592        0
H       53.73063326       4.69983437       4.53282846        0
H       52.55783364       5.40898373       2.66590485        0
H       51.53250727       5.61462896       4.12191342        0
H       51.29478395       7.13333382       1.47099046        0
H       49.54239924       7.30127286       4.05618762        0
H       49.12559874       8.04657627       2.44333769        0
H       54.16894956       8.96960428       4.88294743        0
H       55.95729271       8.64849584       6.52739650        0
H       58.51529315       8.24859593       8.96616749        0
H       57.93449656       9.38622991      11.00763973        0
H       57.38606597       9.43749581      13.29545453        0
H       56.61404356      10.77925187      12.38437733        0
H       55.59697642       9.55692976      15.00894166        0
H       54.10846536      11.62126297      15.09668094        0
H       54.67425461      12.10174516      13.42963797        0
H       54.17856390       7.28294524      11.15345473        0
H       54.75074483       6.12131280       9.07264346        0
C       41.30301866       4.27820938      73.28718530        0
C       40.74030087       4.81134201      71.94355329        0
C       39.19749847       4.69106297      72.05350842        0
C       41.04848087       6.30694681      71.68976840        0
C       41.68408890       7.12912753      72.63413533        0
C       41.95301326       8.47866552      72.36207060        0
C       41.59055058       9.03790939      71.13830465        0
O       41.79706779      10.33240631      70.75077252        0
C       42.64043310      11.12721088      71.58225907        0
C       42.82021677      12.45348890      70.91931469        0
C       43.90197602      12.67866062      69.89600523        0
O       44.04005948      13.13146719      71.25333370        0
C       40.94538611       8.24066223      70.19593210        0
C       40.68065130       6.89465086      70.46388100        0
C       41.35567486       3.92687063      70.83206156        0
C       40.61073018       2.99140660      70.09537303        0
C       41.21045279       2.19810747      69.10492917        0
C       42.57006292       2.32062242      68.82988518        0
O       43.27630618       1.60972725      67.89921325        0
C       42.55792269       0.62640240      67.15100903        0
C       43.52913376      -0.06299104      66.24707453        0
C       43.77366930       0.41823662      64.84216820        0
O       42.93867205      -0.71667843      65.11582036        0
C       43.32372818       3.24529354      69.55037620        0
C       42.72809238       4.03564468      70.53772419        0
H       40.86368623       4.80017067      74.14584860        0
H       41.08144229       3.21070324      73.41137387        0
H       42.39136571       4.38928749      73.35598912        0
H       38.69054287       4.95523228      71.11823519        0
H       38.80570250       5.35751590      72.83213466        0
H       38.88848965       3.67242195      72.31854689        0
H       41.98929323       6.74436842      73.60411080        0
H       42.44386344       9.06137742      73.13471736        0
H       42.16745129      11.28725297      72.55780324        0
H       43.61084666      10.63372098      71.71932199        0
H       41.90808852      13.03184026      70.85908482        0
H       44.49260601      11.82803840      69.57322697        0
H       43.73726872      13.42986851      69.13266984        0
H       40.65147190       8.66483006      69.23911440        0
H       40.18925284       6.30182807      69.69526102        0
H       39.54835848       2.85121808      70.27269955        0
H       40.57966110       1.49450259      68.57126409        0
H       42.12046563      -0.12072828      67.82664909        0
H       41.76316432       1.10611618      66.56427908        0
H       44.32091933      -0.57599489      66.77694445        0
H       44.74299565       0.22817810      64.39787061        0
H       43.29356123       1.33095520      64.51204317        0
H       44.38676807       3.35441475      69.34506111        0
H       43.35186238       4.74801335      71.07520839        0
C       15.07864835      53.66487312      32.11768476        0
C       14.06199883      52.61381455      32.63530273        0
C       14.43314908      51.28293393      31.92975281        0
C       14.16208456      52.34837251      34.15705789        0
C       15.14970217      52.92489395      34.97194566        0
C       15.20114047      52.66516679      36.34943911        0
C       14.26573543      51.82059607      36.94395885        0
O       14.20559549      51.48982213      38.26892096        0
C       15.03902179      52.23229141      39.15689010        0
C       14.73259324      51.79105822      40.55053483        0
C       13.61682459      52.41799353      41.34431065        0
O       14.99216661      52.77462605      41.56268871        0
C       13.28851495      51.22804101      36.14782766        0
C       13.23332030      51.48931126      34.77585129        0
C       12.65715278      53.14563104      32.26118053        0
C       11.85653395      52.56329719      31.26486618        0
C       10.59333656      53.08542532      30.94598636        0
C       10.10251427      54.20379672      31.61496896        0
O        8.89706829      54.81290562      31.40005485        0
C        8.06764042      54.26667794      30.37219450        0
C        6.84174003      55.11669917      30.27098185        0
C        5.59668622      54.79743520      31.05395760        0
O        5.71395540      54.47598124      29.66002311        0
C       10.88326847      54.79299088      32.60764635        0
C       12.14196291      54.27465017      32.92592959        0
H       16.11384931      53.33795954      32.27339518        0
H       14.95376390      53.83713501      31.04120069        0
H       14.96199271      54.63584968      32.61282877        0
H       13.71929473      50.48071445      32.14971025        0
H       15.42216621      50.93114391      32.24914492        0
H       14.47123904      51.39930093      30.83962931        0
H       15.90326795      53.59198493      34.56064296        0
H       15.99080882      53.13894965      36.92339361        0
H       16.09441560      52.02206622      38.94961980        0
H       14.84821608      53.30710472      39.04557737        0
H       15.00727443      50.76340711      40.74695100        0
H       12.97030323      53.13460497      40.84926931        0
H       13.12891178      51.81911199      42.10418215        0
H       12.55570307      50.56231571      36.59682718        0
H       12.44485881      51.01935414      34.19176502        0
H       12.19269897      51.69315118      30.70847590        0
H       10.02412322      52.58913645      30.16659562        0
H        8.59075646      54.29381114      29.40696095        0
H        7.79621999      53.23129302      30.61781050        0
H        7.05117489      56.14424179      30.00423727        0
H        4.93837858      55.61424634      31.32333983        0
H        5.62205151      53.98091036      31.76472147        0
H       10.51225706      55.66587115      33.14107499        0
H       12.71848495      54.76284283      33.70998168        0
C       10.63264144      17.20808079      54.74018846        0
C       12.06886910      17.52745819      55.23159145        0
C       12.15420243      19.07438819      55.31235180        0
C       12.37287494      16.99480213      56.65288430        0
C       11.40661023      16.37516410      57.46170370        0
C       11.72473419      15.89830238      58.74193507        0
C       13.01781465      16.03179961      59.24378904        0
O       13.45491646      15.60960052      60.46822472        0
C       12.57148650      14.77551584      61.21535487        0
C       13.28657253      14.34191379      62.45288145        0
C       14.17175737      13.12353500      62.46116035        0
O       12.83889099      13.09255276      62.99869986        0
C       13.98490814      16.65776836      58.46097390        0
C       13.67052882      17.12954024      57.18338841        0
C       13.03313145      16.90451893      54.19306682        0
C       13.80113745      17.67199884      53.30206351        0
C       14.65335226      17.06705870      52.36518193        0
C       14.75544851      15.67996239      52.29634144        0
O       15.53973373      14.96656231      51.43247874        0
C       16.31268140      15.71287277      50.48993711        0
C       17.03722272      14.73922940      49.61662713        0
C       18.42534888      14.26399328      49.95188211        0
O       18.19300214      15.26936043      48.95418978        0
C       14.00165736      14.90336916      53.17431477        0
C       13.15178808      15.50430456      54.10753063        0
H        9.87295494      17.67527566      55.37843968        0
H       10.47221733      17.58293034      53.72144405        0
H       10.42925029      16.13113011      54.72067255        0
H       13.16233091      19.42428009      55.56290721        0
H       11.47649860      19.46590145      56.08134939        0
H       11.86888259      19.54587155      54.36384908        0
H       10.38299898      16.24396252      57.11958115        0
H       10.93238053      15.43199175      59.31830314        0
H       11.67800205      15.33809205      61.50896216        0
H       12.27830574      13.90317429      60.61778791        0
H       13.50139909      15.15498986      63.13321427        0
H       14.36095794      12.61631200      61.52120517        0
H       14.99537265      13.09297811      63.16461386        0
H       14.99647976      16.77422901      58.84171501        0
H       14.45833992      17.59822272      56.59740343        0
H       13.75578327      18.75718413      53.30892160        0
H       15.21999931      17.71613178      51.70535494        0
H       15.65478608      16.32455099      49.85820463        0
H       17.02697792      16.35960012      51.01676007        0
H       16.37750188      14.09293656      49.05277125        0
H       18.72644834      13.28174797      49.60888148        0
H       18.87159771      14.57488797      50.88823031        0
H       14.07268257      13.81825115      53.13444187        0
H       12.58282573      14.86143853      54.77719661        0
C       17.34866040      37.50015081      41.27764311        0
C       17.59523707      38.18766894      42.64612676        0
C       17.70922935      39.70486342      42.34293855        0
C       16.42326230      38.02483433      43.64421265        0
C       15.20934724      37.40535549      43.30588771        0
C       14.17406383      37.27016737      44.24263994        0
C       14.32878500      37.75344064      45.54042432        0
O       13.40211381      37.68266845      46.54283373        0
C       12.26009004      36.86115356      46.30779287        0
C       11.44687015      36.83655092      47.56034983        0
C       11.72553345      35.84274292      48.65705400        0
O       10.64152136      35.66110345      47.73057340        0
C       15.52063559      38.38443620      45.88862399        0
C       16.55479056      38.51601208      44.95758209        0
C       18.89383388      37.56801564      43.21714756        0
C       20.10464377      38.27380562      43.30958903        0
C       21.26404616      37.67011399      43.82077616        0
C       21.23970786      36.34539305      44.24940294        0
O       22.29329354      35.63917076      44.76078247        0
C       23.55000257      36.31515310      44.84166799        0
C       24.56014902      35.34564008      45.36632072        0
C       24.84783385      35.22969732      46.83905092        0
O       25.72185513      35.94609700      45.95418008        0
C       20.04602820      35.63099830      44.16631066        0
C       18.89055802      36.23056291      43.65669911        0
H       16.48277299      37.92917286      40.75905049        0
H       18.21412187      37.62146328      40.61405591        0
H       17.17144349      36.42315316      41.37884497        0
H       17.97786228      40.28889079      43.23078639        0
H       16.75750769      40.10388890      41.97020945        0
H       18.46495410      39.90868379      41.57436929        0
H       15.03558115      37.00950526      42.30831585        0
H       13.25957972      36.78464595      43.91789722        0
H       11.64792285      37.28548438      45.50392324        0
H       12.57374307      35.84547517      46.03568958        0
H       11.01870335      37.79683181      47.81457353        0
H       12.59609718      35.20230473      48.56461219        0
H       11.47303694      36.11761027      49.67431314        0
H       15.65332110      38.77162867      46.89573896        0
H       17.47595985      39.00096622      45.27373807        0
H       20.18099182      39.30740928      42.98468044        0
H       22.16741518      38.26981296      43.86596402        0
H       23.86930271      36.64482207      43.84395651        0
H       23.46869610      37.18250431      45.51033034        0
H       24.69907351      34.48187530      44.72955557        0
H       25.19514270      34.27668301      47.21886199        0
H       24.25016087      35.80552141      47.53457598        0
H       20.01058778      34.59578300      44.49976047        0
H       17.97800964      35.63836336      43.61194928        0
C       16.64417449       9.82769368      15.58823228        0
C       17.64349526      10.39844508      16.62834264        0
C       18.04466989      11.80218937      16.10359763        0
C       17.02615056      10.61270847      18.03162170        0
C       15.66447466      10.41033344      18.30855253        0
C       15.14541790      10.60768287      19.59666184        0
C       15.97711573      11.01395911      20.63827325        0
O       15.59776228      11.23785708      21.93230318        0
C       14.28430354      10.82082935      22.30008471        0
C       14.12330240      11.05199123      23.76687496        0
C       14.55080772      10.01844235      24.77538055        0
O       13.17145435      10.19165547      24.40956241        0
C       17.32749396      11.23422140      20.37775567        0
C       17.84701890      11.03378921      19.09574611        0
C       18.82307947       9.39808410      16.69351636        0
C       20.10055765       9.68390449      16.18449600        0
C       21.13983900       8.74290615      16.25072411        0
C       20.92469115       7.49303666      16.82582107        0
O       21.84419903       6.48829260      16.94949958        0
C       23.14738634       6.73133260      16.41522760        0
C       23.96004349       5.49057206      16.60420765        0
C       24.80933907       5.28594451      17.82975410        0
O       25.37948151       5.69083513      16.57630315        0
C       19.66343505       7.19360724      17.33739742        0
C       18.62701425       8.12944196      17.27153164        0
H       15.80260528      10.51008359      15.41833672        0
H       17.13211885       9.67030077      14.61806424        0
H       16.22777691       8.86199930      15.89745552        0
H       18.82545513      12.26895097      16.71518034        0
H       17.18415901      12.48295552      16.10452963        0
H       18.41705349      11.75806109      15.07270262        0
H       14.97130089      10.09228777      17.53369851        0
H       14.08402057      10.43751862      19.74481685        0
H       13.53502702      11.41911290      21.76937464        0
H       14.14383695       9.75875682      22.06282517        0
H       14.14225422      12.09782310      24.04250591        0
H       15.07169454       9.13550987      24.42084574        0
H       14.85335545      10.35666708      25.75934782        0
H       17.98718640      11.55704071      21.17925277        0
H       18.91025837      11.20131912      18.93717898        0
H       20.32158481      10.64091947      15.72081456        0
H       22.10362163       9.02556568      15.83964866        0
H       23.08363603       6.94532954      15.33995850        0
H       23.61541307       7.57817908      16.93466984        0
H       23.55609616       4.62880484      16.08938412        0
H       24.99737425       4.27108108      18.15810018        0
H       24.76393017       6.01971859      18.62477306        0
H       19.48061503       6.22208890      17.79219901        0
H       17.65772127       7.85680163      17.68576076        0
C       33.76519787      11.86547791      44.08688641        0
C       33.14386324      10.53257707      44.58039157        0
C       31.95257364      10.24347789      43.62957761        0
C       34.10086185       9.32104486      44.46832569        0
C       35.37213449       9.40107805      43.87733656        0
C       36.21313593       8.28092296      43.80276136        0
C       35.80079577       7.05314229      44.31682964        0
O       36.52274753       5.89242045      44.30887578        0
C       37.89510307       5.98973308      43.93268469        0
C       38.51434373       4.64126510      44.10299592        0
C       39.08341511       4.20090799      45.42598911        0
O       39.92698291       4.65654654      44.35490168        0
C       34.53663384       6.95219451      44.89268589        0
C       33.69922970       8.06850440      44.97164326        0
C       32.72306037      10.76658660      46.05163360        0
C       31.38266661      10.85993804      46.46074923        0
C       31.04368507      11.08723782      47.80365506        0
C       32.03794346      11.22867309      48.76835457        0
O       31.84607608      11.45663437      50.10309136        0
C       30.49545352      11.58815869      50.55179194        0
C       30.52518592      11.89087004      52.01572284        0
C       30.46315136      10.79596569      53.04648744        0
O       29.31220988      11.58799523      52.71760902        0
C       33.37316228      11.13703896      48.37985848        0
C       33.71249990      10.91144893      47.04260304        0
H       34.02948797      11.81988121      43.02348107        0
H       33.06026261      12.69761177      44.20816197        0
H       34.67296039      12.13174956      44.64063566        0
H       31.37464572       9.36521196      43.93969643        0
H       32.30260928      10.05460968      42.60697003        0
H       31.25932385      11.09214111      43.57921063        0
H       35.74442110      10.33413197      43.46157852        0
H       37.18210232       8.40759992      43.33103352        0
H       37.97884026       6.28040727      42.87935269        0
H       38.40858924       6.72827717      44.56109982        0
H       38.11905928       3.89722365      43.42457982        0
H       38.94836394       4.84681443      46.28689202        0
H       39.09217427       3.14146222      45.65319088        0
H       34.19915378       5.99933166      45.29264041        0
H       32.72579129       7.95176443      45.44331840        0
H       30.56788284      10.76259931      45.74914278        0
H       29.98967410      11.14869027      48.05473448        0
H       30.00221505      12.42156923      50.03390672        0
H       29.94410830      10.65702296      50.36464784        0
H       31.03550152      12.81480731      52.25400286        0
H       30.93061858      10.97129776      54.00765820        0
H       30.47885482       9.76529712      52.71479905        0
H       34.16134828      11.24280519      49.12261810        0
H       34.76737373      10.84335080      46.78173668        0
C       31.76383895      43.62725335       5.88931254        0
C       31.28564423      45.10124185       5.95942983        0
C       29.79077348      45.04199057       6.37009654        0
C       32.00726221      45.93843471       7.04321533        0
C       32.93017018      45.38870258       7.94756208        0
C       33.56931110      46.18370974       8.91039894        0
C       33.29854763      47.54818000       8.99190989        0
O       33.85302678      48.42851881       9.87853792        0
C       34.95669093      47.95745452      10.64949389        0
C       35.47421212      49.10231680      11.45714048        0
C       36.49221700      50.06049558      10.89711628        0
O       36.86290351      49.01123895      11.80711267        0
C       32.37417113      48.10708979       8.11267489        0
C       31.73975622      47.31704171       7.14988235        0
C       31.52102802      45.70288280       4.55265647        0
C       30.47608406      46.02342058       3.67056058        0
C       30.73314126      46.55436554       2.39698734        0
C       32.04184120      46.77497778       1.97528419        0
O       32.42945132      47.27992554       0.76487604        0
C       31.39455349      47.58933212      -0.17110805        0
C       32.04263954      48.06345233      -1.43237976        0
C       32.31193846      49.52382533      -1.67718229        0
O       31.19884500      48.85038646      -2.28351645        0
C       33.09060816      46.46409847       2.83875232        0
C       32.83631808      45.93448725       4.10727174        0
H       31.56798004      43.09290387       6.82679275        0
H       31.24289161      43.08142054       5.09258884        0
H       32.83741702      43.54733000       5.68288093        0
H       29.31627080      46.03007448       6.36217098        0
H       29.67728007      44.63780714       7.38384080        0
H       29.21207636      44.39404435       5.70029308        0
H       33.17933760      44.33060871       7.92769665        0
H       34.26970402      45.69804315       9.58199986        0
H       34.62937108      47.16782528      11.33532118        0
H       35.74226234      47.56984147       9.98869536        0
H       34.77536046      49.45232986      12.20493263        0
H       36.77449360      49.96276190       9.85435273        0
H       36.50221170      51.07620424      11.27442084        0
H       32.14854949      49.16906735       8.16837543        0
H       31.03612149      47.79486324       6.47144832        0
H       29.43730452      45.86652605       3.94633642        0
H       29.88171989      46.78107900       1.76339517        0
H       30.80639992      46.69022914      -0.39859790        0
H       30.73753816      48.36848815       0.23787231        0
H       32.68251115      47.32209830      -1.89261664        0
H       33.14291462      49.79014062      -2.31879819        0
H       32.10346281      50.23288742      -0.88578456        0
H       34.11857924      46.63333778       2.52450873        0
H       33.68397827      45.70838833       4.75209643        0
C       40.13001214       5.33270015      64.27971770        0
C       40.16454442       6.85745066      64.56286452        0
C       40.14024661       7.54650821      63.17311427        0
C       38.92560590       7.37535040      65.33294672        0
C       37.82604254       6.56192048      65.65090864        0
C       36.72526880       7.06792946      66.35790539        0
C       36.69829927       8.40116221      66.76225557        0
O       35.69145830       9.01317973      67.45526251        0
C       34.67510257       8.17004793      67.99424211        0
C       33.75094445       9.02291523      68.80008326        0
C       34.02852382       9.32894982      70.24830981        0
O       33.06685902       8.33462354      69.85721200        0
C       37.77380712       9.22608663      66.44180460        0
C       38.87330317       8.72223665      65.74118247        0
C       41.46126055       7.12205238      65.36592232        0
C       42.57231397       7.79347832      64.82973855        0
C       43.73544696       8.00049881      65.58752079        0
C       43.81500944       7.53862416      66.89883328        0
O       44.88472319       7.66894250      67.74087329        0
C       46.04558162       8.32001146      67.21998071        0
C       47.09995917       8.29639333      68.27985899        0
C       47.25323700       9.42660917      69.26182517        0
O       48.12556968       9.28711388      68.13058034        0
C       42.72093113       6.87185883      67.44705945        0
C       41.56198695       6.66416734      66.69339797        0
H       39.27711735       5.05737031      63.64763924        0
H       41.03762301       5.00866708      63.75499556        0
H       40.06315929       4.73997919      65.19938295        0
H       40.25496704       8.63428848      63.24451960        0
H       39.19148311       7.35548603      62.65612224        0
H       40.94051503       7.17360042      62.52206006        0
H       37.79521135       5.51454462      65.36091742        0
H       35.90583313       6.38887530      66.56975603        0
H       34.10158082       7.70418700      67.18488552        0
H       35.12354854       7.39145905      68.62409651        0
H       33.19706535       9.73763474      68.20637470        0
H       34.96902551       8.99743540      70.67509140        0
H       33.64909624      10.25758505      70.65793649        0
H       37.76402260      10.26983481      66.74561047        0
H       39.70025334       9.39516256      65.52435964        0
H       42.56603897       8.16962907      63.81081638        0
H       44.55868083       8.52664307      65.11506486        0
H       46.42275246       7.77941171      66.34159782        0
H       45.80447309       9.35498454      66.94300489        0
H       47.39454579       7.29698380      68.57185006        0
H       47.66433751       9.20323083      70.23866428        0
H       46.53078233      10.23306061      69.24643642        0
H       42.76701066       6.50736725      68.47133387        0
H       40.72880674       6.14154480      67.16043526        0
C       51.28273238      22.50594032      42.00421000        0
C       50.86587752      23.67475954      41.07344560        0
C       50.14682120      23.01809002      39.86574548        0
C       49.84830358      24.64868673      41.71549272        0
C       49.27635872      24.43509909      42.98003493        0
C       48.36347657      25.34677539      43.53056633        0
C       48.00008450      26.49362781      42.82742216        0
O       47.12744054      27.45657424      43.25142628        0
C       46.71111750      27.39395185      44.61418187        0
C       45.86255514      28.59167579      44.89027986        0
C       46.47053163      29.90315977      45.31270380        0
O       45.85187215      29.01716689      46.26071143        0
C       48.54606624      26.71338614      41.56507654        0
C       49.45914659      25.80808795      41.01703713        0
C       52.17097277      24.41527675      40.69298629        0
C       52.73196789      24.36943938      39.40615727        0
C       53.92558035      25.04407994      39.10595868        0
C       54.58705376      25.77859266      40.08684746        0
O       55.75345713      26.47511212      39.92979470        0
C       56.37030004      26.42656572      38.64140026        0
C       57.64888832      27.19820082      38.71490625        0
C       57.70396834      28.66305003      38.37384543        0
O       58.14837269      27.65694718      37.45167413        0
C       54.04321954      25.83606460      41.36867296        0
C       52.85486153      25.16406013      41.66951880        0
H       50.42624456      21.87463424      42.26999277        0
H       52.02145886      21.85773824      41.51614701        0
H       51.73427564      22.85872012      42.93867600        0
H       49.88572690      23.74624139      39.08911767        0
H       49.21406637      22.53305768      40.17980674        0
H       50.76750714      22.24501205      39.39621297        0
H       49.52528230      23.55785091      43.57207744        0
H       47.95482498      25.12263672      44.51048255        0
H       46.10899984      26.49430067      44.78475084        0
H       47.58539248      27.38386591      45.27717699        0
H       44.93028669      28.59449598      44.34167849        0
H       47.55150390      29.99282649      45.31952926        0
H       45.94315132      30.81647349      45.06400568        0
H       48.26734271      27.60080328      41.00239721        0
H       49.87492868      26.02422501      40.03515220        0
H       52.26055920      23.80722262      38.60527194        0
H       54.30655760      24.96918153      38.09254714        0
H       56.60527817      25.38836457      38.37124088        0
H       55.70225834      26.86375904      37.88734423        0
H       58.35611692      26.79273493      39.42644302        0
H       58.46235796      29.27122374      38.85142904        0
H       56.78038245      29.18181078      38.14930614        0
H       54.54713511      26.40812670      42.14515837        0
H       52.46215116      25.23731244      42.68236631        0
C        9.98780734      24.69783766      64.31930416        0
C       10.05631461      26.18213393      63.87388293        0
C       10.91051844      26.19626499      62.57891862        0
C        8.67981697      26.78358629      63.50008524        0
C        7.49726310      26.02717518      63.46521151        0
C        6.26743469      26.61216223      63.12919881        0
C        6.19233016      27.96846158      62.81847808        0
O        5.06088685      28.65623004      62.47882620        0
C        3.81765917      27.98085147      62.65937517        0
C        2.72160404      28.94410158      62.34055984        0
C        2.17147873      29.87986275      63.38448551        0
O        1.47744956      28.67957969      63.00489957        0
C        7.35818080      28.73035601      62.83315473        0
C        8.58365620      28.14982798      63.17201310        0
C       10.69552960      26.96056500      65.04939894        0
C       11.99187257      27.49875922      64.99853262        0
C       12.54014214      28.18605272      66.09260660        0
C       11.80502878      28.34905014      67.26403266        0
O       12.21955461      28.98985421      68.39886313        0
C       13.54521536      29.52410530      68.39546981        0
C       13.80421282      30.11886651      69.74261170        0
C       13.52375192      31.56958968      70.02876458        0
O       14.85460810      31.09411289      69.77800226        0
C       10.51634810      27.82276749      67.33084572        0
C        9.96908246      27.13728440      66.24231173        0
H        9.61266086      24.05112013      63.51694465        0
H       10.98122614      24.32342411      64.59683223        0
H        9.33698145      24.55403191      65.18954388        0
H       11.10648442      27.21300558      62.21925028        0
H       10.40336797      25.65926049      61.76753278        0
H       11.88123496      25.70774230      62.72863964        0
H        7.49825174      24.96556788      63.69979759        0
H        5.39075128      25.97282408      63.11724136        0
H        3.74527716      27.13128917      61.97088666        0
H        3.72603267      27.62625468      63.69372845        0
H        2.69850276      29.24117302      61.30069890        0
H        2.65421624      29.91166695      64.35533090        0
H        1.75293794      30.82418356      63.05706453        0
H        7.31580933      29.78843352      62.58722661        0
H        9.46846658      28.78272929      63.18732689        0
H       12.61063037      27.39598505      64.11179285        0
H       13.54681077      28.57811845      65.98936349        0
H       14.27713061      28.72402463      68.22159224        0
H       13.64055674      30.28999855      67.61422992        0
H       13.74867504      29.39926626      70.54880677        0
H       13.27885116      31.85236128      71.04521920        0
H       13.04913593      32.17040325      69.26305954        0
H        9.92855772      27.94431394      68.23850450        0
H        8.95782108      26.74450838      66.33464173        0
C       13.67607561      16.19876257       9.01491477        0
C       12.73072649      17.17258977       8.26377941        0
C       12.96866921      18.56769233       8.89928594        0
C       13.05365685      17.31435649       6.75651912        0
C       14.16226895      16.70234375       6.14970184        0
C       14.41554090      16.84887261       4.77785093        0
C       13.56561618      17.61309232       3.98077364        0
O       13.69947620      17.83139077       2.63802270        0
C       14.66951008      17.04342184       1.95064474        0
C       14.56832331      17.35870949       0.49421562        0
C       13.59542781      16.63525838      -0.39918265        0
O       14.99391432      16.30314254      -0.37979250        0
C       12.46982236      18.23983928       4.56927207        0
C       12.21369256      18.09120533       5.93526373        0
C       11.29501135      16.63166568       8.46996333        0
C       10.34389687      17.27004566       9.28273498        0
C        9.05633257      16.73845142       9.45465207        0
C        8.69093417      15.55447392       8.81913644        0
O        7.47757437      14.92937967       8.90467537        0
C        6.49386665      15.53353528       9.74736588        0
C        5.28152295      14.65845942       9.73860042        0
C        4.16288005      14.87457312       8.75520200        0
O        4.06387862      15.31338720      10.11820567        0
C        9.62198446      14.90896579       8.00759476        0
C       10.90507332      15.43670172       7.83592422        0
H       14.71712394      16.54254406       8.98677385        0
H       13.39390578      16.11230927      10.07179426        0
H       13.65188789      15.18716381       8.59342395        0
H       12.28221790      19.32728250       8.50770866        0
H       13.98822120      18.92135709       8.70089900        0
H       12.84458713      18.54292254       9.98894252        0
H       14.85690258      16.09434730       6.72404155        0
H       15.29051721      16.35316903       4.37021814        0
H       15.67801100      17.30154023       2.29315383        0
H       14.48272350      15.97624081       2.12458847        0
H       14.85161788      18.37439461       0.25291952        0
H       12.89434578      15.94293680       0.05442796        0
H       13.21692700      17.15448096      -1.27168923        0
H       11.80138987      18.84398410       3.96098672        0
H       11.33845340      18.58397062       6.35338665        0
H       10.57761085      18.19283113       9.80577982        0
H        8.36803109      17.28013520      10.09541424        0
H        6.86645434      15.60186150      10.77817739        0
H        6.24459406      16.53651515       9.37599983        0
H        5.46621360      13.66318059      10.12092079        0
H        3.56669640      14.01897065       8.46258344        0
H        4.28062529      15.63001704       7.98840212        0
H        9.35042291      13.98430941       7.50224298        0
H       11.60115994      14.90291677       7.19095565        0
C       43.71103305      27.18049661      10.87354672        0
C       44.57550360      28.17372312      11.69355921        0
C       45.89836667      28.33829376      10.89999369        0
C       43.95487108      29.58679133      11.81301174        0
C       42.77427468      29.96331402      11.15253434        0
C       42.23953138      31.25240773      11.29352839        0
C       42.87495480      32.19612044      12.09812730        0
O       42.45745362      33.47877970      12.31955627        0
C       41.15161645      33.82005481      11.85839490        0
C       40.85859177      35.21589143      12.30179934        0
C       40.26981916      35.50065182      13.65838548        0
O       39.46456067      35.51322807      12.46765377        0
C       44.05536411      31.84433036      12.74834561        0
C       44.58707711      30.55887258      12.61230402        0
C       44.76378347      27.53594344      13.09147781        0
C       45.98949806      27.01619859      13.53895358        0
C       46.11455174      26.43277222      14.80936492        0
C       45.01560341      26.35370257      15.66098654        0
O       44.99948211      25.80933176      16.91545945        0
C       46.22157172      25.24264629      17.39313791        0
C       45.95958769      24.65787924      18.74407230        0
C       46.16850764      25.45834214      20.00135154        0
O       47.12515093      24.48331009      19.56057471        0
C       43.79220475      26.86616883      15.23342442        0
C       43.66577741      27.44688988      13.96808961        0
H       43.58380454      27.51467820       9.83677539        0
H       44.17838767      26.18835821      10.83708720        0
H       42.71075344      27.04753887      11.30172256        0
H       46.63219673      28.95240968      11.43467160        0
H       45.71826413      28.82116873       9.93132592        0
H       46.36934108      27.36957196      10.69233401        0
H       42.23729446      29.26660694      10.51355613        0
H       41.32628238      31.48191651      10.75429556        0
H       41.11689674      33.78839186      10.76349596        0
H       40.41033991      33.12428942      12.27123946        0
H       41.49265360      35.95783043      11.83533606        0
H       40.15081159      34.67613354      14.35307575        0
H       40.49021072      36.45443339      14.12298314        0
H       44.56524923      32.57201556      13.37468052        0
H       45.50226538      30.31884918      13.14943267        0
H       46.87695482      27.04693091      12.91348801        0
H       47.08900606      26.05015632      15.09537237        0
H       46.55460754      24.43795555      16.72409204        0
H       46.99703946      26.01774898      17.45545809        0
H       45.21980725      23.86825456      18.73528397        0
H       45.56999608      25.21209249      20.86983366        0
H       46.43669080      26.50396313      19.91593461        0
H       42.92496507      26.81409220      15.88863346        0
H       42.69315765      27.83804808      13.67405989        0
C       14.38958515      33.86223413      60.61132672        0
C       14.92786587      34.82955366      61.69796167        0
C       16.09759633      35.60278936      61.03415925        0
C       13.89749697      35.89267987      62.14997713        0
C       12.63277828      36.03468916      61.55657372        0
C       11.72389773      37.00617803      62.00125095        0
C       12.06012670      37.85998435      63.04991716        0
O       11.26764959      38.84178817      63.57583929        0
C        9.90342026      38.86049262      63.16005365        0
C        9.20208222      39.92744806      63.93501292        0
C        8.60872111      39.65038710      65.29119412        0
O        7.79346479      39.71589723      64.10903213        0
C       13.31643110      37.74314950      63.63979438        0
C       14.22148935      36.77274127      63.20069853        0
C       15.36446312      33.94491672      62.89093650        0
C       16.70864997      33.74154131      63.24384679        0
C       17.06298366      32.91956946      64.32494793        0
C       16.08077863      32.28004067      65.07692866        0
O       16.28831011      31.45328309      66.14636979        0
C       17.64512743      31.19809421      66.51615021        0
C       17.63630038      30.23187934      67.65718604        0
C       17.63186795      30.70310471      69.08654481        0
O       18.82918933      30.22909629      68.45260821        0
C       14.74189269      32.47234797      64.74146234        0
C       14.38731761      33.29010248      63.66450038        0
H       14.12145534      34.39551068      59.69128229        0
H       15.14488632      33.11349813      60.34113643        0
H       13.50085424      33.31426869      60.94518723        0
H       16.62045355      36.25664721      61.74170123        0
H       15.73506918      36.23748558      60.21583341        0
H       16.84201255      34.92088817      60.60495463        0
H       12.31840979      35.39457321      60.73592416        0
H       10.76396460      37.06698996      61.49895586        0
H        9.83634122      39.10404581      62.09366069        0
H        9.43757006      37.88447929      63.34553293        0
H        9.54954567      40.92564741      63.70487579        0
H        8.78475662      38.68031198      65.74347005        0
H        8.53467658      40.47038291      65.99564212        0
H       13.59481022      38.40626442      64.45501685        0
H       15.18650138      36.70348759      63.69833664        0
H       17.51481929      34.21164165      62.68812397        0
H       18.11913566      32.80385786      64.54610437        0
H       18.18830224      30.74182182      65.67779524        0
H       18.13746580      32.13432834      66.81125491        0
H       17.18454012      29.27979688      67.41160282        0
H       17.17753656      30.06456839      69.83418813        0
H       17.55187460      31.76439788      69.28604256        0
H       13.96283669      31.98144556      65.32129171        0
H       13.32987872      33.41626789      63.43788906        0
C       11.94825762       5.27015373      33.76952538        0
C       11.72322210       6.48722979      34.70457275        0
C       13.12033550       6.84606823      35.27562928        0
C       11.21020291       7.74954627      33.97000906        0
C       11.06444255       7.81800645      32.57506292        0
C       10.58802248       8.97881096      31.94804687        0
C       10.24749816      10.09967886      32.70265560        0
O        9.77200820      11.28518974      32.21580239        0
C        9.39285420      11.31153748      30.84106705        0
C        8.80094151      12.65243601      30.55390624        0
C        7.33945694      12.93098888      30.78744157        0
O        7.85861675      12.67373973      29.47186664        0
C       10.40049495      10.05438516      34.08629092        0
C       10.87096486       8.89695017      34.71289290        0
C       10.71024904       6.02785610      35.78125749        0
C       11.06286553       5.80998315      37.12324799        0
C       10.11625407       5.37942402      38.06585890        0
C        8.79511623       5.15463079      37.68735973        0
O        7.77956556       4.73204089      38.49999517        0
C        8.10737038       4.47034449      39.86633011        0
C        6.87449123       3.96696169      40.54620261        0
C        5.92583224       4.90168675      41.24725517        0
O        6.87473254       4.10623363      41.97318948        0
C        8.42778236       5.36764713      36.36002211        0
C        9.36956170       5.79574031      35.41976636        0
H       12.71266709       5.47800199      33.01108191        0
H       12.28750024       4.39449720      34.33717696        0
H       11.03335472       4.97523742      33.24269651        0
H       13.07188223       7.64156620      36.02819865        0
H       13.79222976       7.19420964      34.48109919        0
H       13.60120566       5.97876498      35.74457526        0
H       11.31415733       6.97271920      31.93853040        0
H       10.50122928       8.96904001      30.86645474        0
H       10.27363662      11.17629581      30.20314565        0
H        8.66252091      10.51912308      30.63439408        0
H        9.51228909      13.46331451      30.63487883        0
H        6.73733075      12.16456765      31.26349862        0
H        7.04158088      13.94709345      31.01749386        0
H       10.14439240      10.92324729      34.68736837        0
H       10.96104939       8.89667569      35.79713120        0
H       12.08006981       5.96475364      37.47120302        0
H       10.45252088       5.22983867      39.08679242        0
H        8.88148442       3.69393988      39.92962115        0
H        8.46347148       5.38929995      40.35082062        0
H        6.49536794       3.04585796      40.12348178        0
H        4.88287864       4.61710155      41.31340061        0
H        6.10281018       5.96817363      41.18540016        0
H        7.39858825       5.19881722      36.04958454        0
H        9.04055296       5.95331503      34.39391507        0
C       43.07323577      39.01489124      40.72028100        0
C       43.83859622      38.96307753      42.06852705        0
C       44.54037156      40.33942899      42.20982264        0
C       42.91597971      38.81043902      43.30209734        0
C       41.51442666      38.82492150      43.21696856        0
C       40.71323137      38.67512225      44.35856332        0
C       41.29619193      38.50873761      45.61323824        0
O       40.63075625      38.35094735      46.79681350        0
C       39.22411693      38.12762136      46.72039006        0
C       38.72454183      37.86989642      48.10416511        0
C       38.74094968      36.48644915      48.69903658        0
O       37.53603255      37.06878007      48.17414915        0
C       42.68505578      38.50740870      45.71793623        0
C       43.48473556      38.65219417      44.58075676        0
C       44.82120612      37.77128845      41.96603215        0
C       46.21242121      37.93099893      41.85759474        0
C       47.06812205      36.82344971      41.75233060        0
C       46.55171556      35.53018987      41.75086672        0
O       47.26966788      34.37055900      41.65035573        0
C       48.68639028      34.49428422      41.50752061        0
C       49.25448201      33.11963992      41.35508484        0
C       49.72748978      32.32796063      42.54447421        0
O       50.64732944      33.00519676      41.67534574        0
C       45.17360812      35.35365491      41.85945128        0
C       44.31988061      36.45574182      41.96359916        0
H       42.39970331      39.87893513      40.66986862        0
H       43.76844522      39.09873078      39.87544789        0
H       42.46921893      38.11619755      40.54973799        0
H       45.19255592      40.38704197      43.08954645        0
H       43.80474903      41.14741050      42.30956122        0
H       45.15522155      40.57263837      41.33179403        0
H       41.00736549      38.95034971      42.26344960        0
H       39.63646465      38.69831872      44.22625531        0
H       38.72038552      39.01876777      46.32907888        0
H       39.01172779      37.26886398      46.07120008        0
H       38.80859815      38.72691733      48.75879903        0
H       39.21542126      35.68862845      48.13783554        0
H       38.82295595      36.39213594      49.77537421        0
H       43.15384949      38.38443440      46.69103119        0
H       44.56558871      38.62976803      44.70299236        0
H       46.66771962      38.91707586      41.84827872        0
H       48.13338381      37.01448731      41.67184204        0
H       48.92854459      35.07298150      40.60611439        0
H       49.11219456      34.98856353      42.39092135        0
H       48.88692497      32.59627647      40.48224351        0
H       49.69110082      31.24701301      42.48664475        0
H       49.57620517      32.73531238      43.53630031        0
H       44.75528627      34.34910841      41.86239604        0
H       43.24984091      36.27396961      42.04974613        0
C       26.35404322       9.68363770       2.81972331        0
C       26.46829851       9.47801800       4.35298617        0
C       25.04420877       9.71867769       4.91942041        0
C       26.86653841       8.03847169       4.75959013        0
C       27.00658925       6.99195505       3.83384919        0
C       27.37740604       5.70226029       4.24222970        0
C       27.61544758       5.42898630       5.58773836        0
O       27.98301899       4.22140472       6.11232466        0
C       28.35928556       3.20415200       5.18605817        0
C       28.82872370       2.02177485       5.96864551        0
C       30.25915361       1.90011429       6.42376811        0
O       29.76612840       1.18031567       5.28128945        0
C       27.46611941       6.45166754       6.52140341        0
C       27.10092680       7.73832927       6.11549248        0
C       27.51761147      10.50063543       4.85257054        0
C       27.18498185      11.62749123       5.62218023        0
C       28.16571380      12.53895234       6.04333724        0
C       29.50196781      12.34549333       5.70245946        0
O       30.55074105      13.15485473       6.04203352        0
C       30.24673683      14.32819235       6.79944518        0
C       31.51930748      15.08649783       7.00229629        0
C       32.37977008      14.86780299       8.21758069        0
O       31.50552891      16.00073790       8.10668005        0
C       29.84968044      11.23151649       4.94069386        0
C       28.87398063      10.32315414       4.51976548        0
H       25.57462412       9.04774805       2.38279144        0
H       26.09431230      10.72239233       2.57968810        0
H       27.29210002       9.45970794       2.29868923        0
H       25.02054888       9.69075710       6.01495045        0
H       24.34437191       8.95287662       4.56206975        0
H       24.64274424      10.69044893       4.60661336        0
H       26.83418121       7.14975731       2.77205091        0
H       27.46551679       4.93660882       3.47836821        0
H       27.49465468       2.90195782       4.58430755        0
H       29.15791554       3.56820334       4.52751600        0
H       28.04743830       1.55441982       6.55282723        0
H       30.92726226       2.73814966       6.25668937        0
H       30.46450125       1.33106460       7.32273279        0
H       27.64280039       6.25176526       7.57526626        0
H       27.01043727       8.51311787       6.87391339        0
H       26.15774010      11.82939234       5.91156143        0
H       27.84347636      13.38913593       6.63588032        0
H       29.54535274      14.96683815       6.24604268        0
H       29.80927418      14.04883531       7.76722836        0
H       31.97984704      15.40972638       6.07802031        0
H       33.44400069      15.04912465       8.13010595        0
H       32.10787213      14.08614171       8.91587766        0
H       30.89009756      11.06534335       4.66860152        0
H       29.18827611       9.46432798       3.92893269        0
C       55.06765172      21.01848834      71.94424521        0
C       54.42505931      22.34283183      72.43354882        0
C       54.77435371      22.45083620      73.94123742        0
C       55.00888363      23.60555373      71.75465415        0
C       56.09036335      23.56364831      70.85997369        0
C       56.58494484      24.73066671      70.25909972        0
C       56.00947021      25.96808268      70.54082060        0
O       56.39443134      27.17293273      70.02246350        0
C       57.32622093      27.14187879      68.94304096        0
C       57.51637370      28.54253945      68.46052419        0
C       56.60051282      29.14819597      67.42977366        0
O       57.90612955      28.65592217      67.08412518        0
C       54.94581277      26.02982905      71.43788609        0
C       54.44907403      24.86731254      72.03406870        0
C       52.90749422      22.22002188      72.15372291        0
C       51.94981106      22.06731952      73.16973003        0
C       50.58358233      21.94495648      72.87238161        0
C       50.14375214      21.97028864      71.55135681        0
O       48.84905786      21.85736864      71.12554284        0
C       47.84930171      21.66979980      72.12959350        0
C       46.53131353      21.51141397      71.44152888        0
C       45.63762045      22.69221644      71.17290700        0
O       45.38771661      21.78943788      72.26041655        0
C       51.08056631      22.12287414      70.53094897        0
C       52.44178413      22.24410632      70.82536672        0
H       56.14047111      20.98166774      72.16888282        0
H       54.60607455      20.15190686      72.43421592        0
H       54.95236641      20.87422727      70.86375012        0
H       54.29088223      23.30956071      74.42120925        0
H       55.85570077      22.56647783      74.08696986        0
H       54.47112657      21.55230684      74.49265347        0
H       56.57595819      22.62523235      70.60381982        0
H       57.42481434      24.63149889      69.57920632        0
H       58.29302573      26.75886090      69.28886964        0
H       56.94626361      26.50678191      68.13291418        0
H       57.99313973      29.18705689      69.18673856        0
H       55.73360203      28.57931150      67.11130247        0
H       56.45743723      30.22223895      67.43892526        0
H       54.49067562      26.98897269      71.67176142        0
H       53.60676337      24.95628040      72.71691969        0
H       52.23834308      22.03567591      74.21638141        0
H       49.89458245      21.82999640      73.70293549        0
H       48.05407045      20.75652321      72.70410030        0
H       47.82684239      22.53544918      72.80499333        0
H       46.49032506      20.65476284      70.78173478        0
H       44.96911956      22.64460198      70.32205120        0
H       45.99792215      23.68479351      71.41272974        0
H       50.75199019      22.14716219      69.49385526        0
H       53.14030804      22.36479185      69.99896080        0
C       40.11587248      32.73097195      21.19190233        0
C       38.75597700      32.27436188      21.71047762        0
C       37.57279777      33.20418231      21.50002360        0
C       36.32497705      32.92327937      22.10474053        0
C       35.26138960      33.86639834      22.01339630        0
C       35.40946242      35.02627277      21.20812968        0
C       36.60113036      35.21014181      20.48104898        0
C       37.67428197      34.32683808      20.66788928        0
C       36.78025232      36.36281949      19.52759140        0
N       34.31364247      35.87851303      20.95191682        0
C       33.95967097      33.61611678      22.75949346        0
C       32.94931437      32.85999066      21.90899913        0
N       36.20595920      31.79951907      22.95718547        0
H       40.88392802      31.99910419      21.46343743        0
H       40.40403721      33.69565667      21.62245985        0
H       40.11912540      32.82058889      20.10070034        0
H       38.86933818      32.10137713      22.78811948        0
H       38.52157472      31.31204066      21.23871777        0
H       38.60107322      34.52965956      20.13747620        0
H       36.78536103      37.30976191      20.07678745        0
H       35.97742341      36.37343146      18.78317628        0
H       37.72532656      36.29121358      18.97852014        0
H       33.63045718      35.92205154      21.69706010        0
H       34.58437759      36.80932992      20.65475021        0
H       34.14462827      33.06754296      23.69009819        0
H       33.52547114      34.55911066      23.10845227        0
H       32.03013527      32.68908119      22.47832815        0
H       33.33974845      31.88574853      21.59677168        0
H       32.68696458      33.41998758      21.00550411        0
H       35.25621437      31.45174352      23.02883851        0
H       36.84114510      31.04526577      22.72185677        0
C       48.34066349      13.30898314      38.60396089        0
C       47.44230014      12.09112485      38.79499305        0
C       47.47984573      11.01268893      37.72525649        0
C       46.55121265       9.94563510      37.75137689        0
C       46.50612213       9.01478197      36.67410500        0
C       47.47643532       9.07987282      35.63972400        0
C       48.49490706      10.04931885      35.71331988        0
C       48.45916221      11.02168505      36.72327802        0
C       49.61398457      10.10400493      34.70609258        0
N       47.56872575       8.06376596      34.66412716        0
C       45.43284465       7.93722391      36.64732280        0
C       45.89194367       6.65575561      37.32773069        0
N       45.54791901       9.92511113      38.74969823        0
H       48.16908111      14.02967131      39.41045893        0
H       48.13387996      13.81261768      37.65389347        0
H       49.40000218      13.03349699      38.62989338        0
H       46.41329690      12.46478735      38.86992722        0
H       47.70225810      11.62830169      39.75508706        0
H       49.22598357      11.79199295      36.71805064        0
H       49.22072441      10.36609868      33.71867390        0
H       50.12974983       9.13967141      34.65272781        0
H       50.36499449      10.85450357      34.97536544        0
H       46.69086761       7.61254683      34.44132087        0
H       48.05050452       8.35388022      33.82047528        0
H       44.51023734       8.29614858      37.11757428        0
H       45.12191589       7.72536646      35.61874177        0
H       45.09415311       5.90680853      37.29867401        0
H       46.15244130       6.83177760      38.37664905        0
H       46.77094016       6.23129663      36.83182046        0
H       45.19497706       8.99417178      38.94174285        0
H       45.82611754      10.38168349      39.61102629        0
C       46.86893345      18.17581475      21.72329286        0
C       48.01952540      17.76966625      20.80791840        0
C       49.38635677      17.56861872      21.44047032        0
C       50.52718564      17.36205644      20.62961455        0
C       51.82140700      17.30864963      21.22221409        0
C       51.95565508      17.33185552      22.63541171        0
C       50.79734012      17.37378151      23.43483357        0
C       49.54090757      17.53333754      22.83258088        0
C       50.86595519      17.29393494      24.93774686        0
N       53.20347528      17.09465902      23.25141691        0
C       53.05576660      17.20186967      20.33975863        0
C       53.45250490      15.75512288      20.08400437        0
N       50.39259409      17.40481663      19.22116805        0
H       45.96317801      18.34553281      21.13162244        0
H       47.09569519      19.10109628      22.26317106        0
H       46.64193621      17.39212478      22.45340644        0
H       48.10691406      18.55118714      20.04262449        0
H       47.73617092      16.83696391      20.30458899        0
H       48.67196856      17.62212034      23.47948057        0
H       51.36521776      18.18097139      25.34054403        0
H       51.40587941      16.39405866      25.25000517        0
H       49.86818644      17.24078543      25.38652813        0
H       54.00430098      17.39366884      22.70998586        0
H       53.25934688      17.44278652      24.20205416        0
H       52.89660224      17.71648498      19.38529260        0
H       53.89587040      17.74907746      20.78058562        0
H       54.33651608      15.71488819      19.43968985        0
H       52.64767149      15.20190372      19.58876278        0
H       53.69132331      15.23403564      21.01682860        0
H       51.11570911      16.88611441      18.73521548        0
H       49.47546704      17.12210427      18.89453301        0
C       40.56849485       1.90830351      39.34774672        0
C       40.78793270       3.19659144      40.13444239        0
C       40.42129638       4.50681944      39.45794374        0
C       40.75831540       5.74214164      40.05964365        0
C       40.53189509       6.96088767      39.35791194        0
C       39.85026233       6.94591015      38.11258426        0
C       39.37613283       5.72165847      37.60372703        0
C       39.70198820       4.52351209      38.25568768        0
C       38.55472457       5.65015666      36.34277190        0
N       39.45004299       8.14698236      37.48806054        0
C       40.99929210       8.27881327      39.95656489        0
C       39.92337120       8.93184204      40.81203869        0
N       41.49412508       5.74545476      41.26887399        0
H       40.92990317       1.05149799      39.92614049        0
H       41.11061251       1.92406758      38.39648692        0
H       39.50633554       1.74062027      39.14168004        0
H       41.85319125       3.23120545      40.39542618        0
H       40.21579166       3.12282387      41.06759667        0
H       39.37166698       3.59091026      37.80562288        0
H       39.15827238       5.95344521      35.48132636        0
H       37.67430928       6.29632431      36.42111102        0
H       38.19086147       4.63451771      36.15342259        0
H       40.05361960       8.93832220      37.67068804        0
H       39.27370672       8.04844282      36.49447056        0
H       41.90844227       8.13452617      40.55137144        0
H       41.32328286       8.96856679      39.16992059        0
H       40.29543084       9.87098825      41.23371606        0
H       39.62494531       8.28318576      41.64225524        0
H       39.02690838       9.15753745      40.22540149        0
H       41.36083146       6.58939527      41.81485424        0
H       41.33235883       4.92508907      41.84208474        0
C       38.39200735       6.21220879      59.45644682        0
C       37.24226319       7.09570634      59.92999647        0
C       36.04269649       7.24516368      59.00941391        0
C       35.02396977       8.18074156      59.30696298        0
C       33.97316349       8.40993029      58.37298539        0
C       33.87539326       7.60870338      57.20501064        0
C       34.80570423       6.57109501      57.00397084        0
C       35.89281048       6.43123439      57.87885836        0
C       34.69499619       5.61894742      55.84164963        0
N       32.74678464       7.68833573      56.36080622        0
C       32.94338257       9.49674411      58.64161184        0
C       31.73563530       8.96537671      59.39982224        0
N       35.16292811       9.01915934      60.43895727        0
H       39.21041350       6.24299506      60.18345069        0
H       38.78584802       6.55183555      58.49281906        0
H       38.08001797       5.16738910      59.35756311        0
H       37.66254133       8.09303940      60.11104758        0
H       36.88801066       6.70116058      60.89041445        0
H       36.62605836       5.65847144      57.66298440        0
H       34.85211076       6.15354827      54.89938678        0
H       33.71161932       5.13761529      55.83216072        0
H       35.44213406       4.82009249      55.89985425        0
H       32.30711109       8.59916420      56.32990459        0
H       32.91439340       7.33580928      55.42504023        0
H       33.39224521      10.32860646      59.19631444        0
H       32.62215200       9.96616395      57.70566572        0
H       31.02068867       9.77355289      59.58404593        0
H       32.02574662       8.54340280      60.36773025        0
H       31.22040734       8.18189731      58.83464317        0
H       34.27639836       9.35770218      60.79610005        0
H       35.70815157       8.60266007      61.18528058        0
C       26.36722791      48.88315704       4.85693176        0
C       24.86108148      49.05410681       5.02730762        0
C       24.21636919      48.43794089       6.25753347        0
C       22.80803280      48.40935954       6.38950803        0
C       22.20914866      47.71261997       7.47805165        0
C       23.02445585      47.15871583       8.49988967        0
C       24.41972992      47.33726353       8.43777980        0
C       24.99603107      47.93198504       7.30597926        0
C       25.33074737      46.86731948       9.54187748        0
N       22.45465122      46.62839152       9.67753931        0
C       20.69540470      47.58503839       7.55599638        0
C       20.06514072      48.72524296       8.34250046        0
N       22.00361176      48.90619168       5.33607106        0
H       26.68708564      49.31908034       3.90460149        0
H       26.65131915      47.82564987       4.85447507        0
H       26.92080929      49.39166202       5.65300582        0
H       24.38978203      48.61771816       4.13762889        0
H       24.64245316      50.12916884       5.02999164        0
H       26.07981567      48.00162898       7.26151299        0
H       25.31631423      45.77447963       9.60380552        0
H       25.02245732      47.29443972      10.50173491        0
H       26.36731030      47.17752469       9.37134305        0
H       21.53484777      46.22464291       9.55578161        0
H       23.06714543      45.98988424      10.17270075        0
H       20.25713340      47.54076459       6.55243985        0
H       20.40961313      46.62326027       7.99513784        0
H       18.97722167      48.60749618       8.37084858        0
H       20.28845706      49.69575158       7.88718156        0
H       20.42860725      48.74898481       9.37500015        0
H       21.08464061      49.20548142       5.64268956        0
H       22.45162436      49.63857620       4.79696402        0
C       29.14977662      35.05793312      64.69960654        0
C       28.44644717      36.28218369      65.27689942        0
C       27.23240090      36.81355410      64.53359116        0
C       26.64005411      38.04058574      64.91459536        0
C       25.58856885      38.59695045      64.13109521        0
C       25.04720500      37.85983425      63.04515162        0
C       25.53907060      36.56763639      62.77903216        0
C       26.64432774      36.08245436      63.49303089        0
C       24.93685652      35.69278424      61.71047996        0
N       23.88838510      38.30261784      62.37146105        0
C       25.03113451      39.96976370      64.47522301        0
C       23.85321851      39.88453889      65.43498258        0
N       27.22625412      38.79843775      65.95656213        0
H       30.03758433      34.82173795      65.29566052        0
H       29.47432105      35.23305279      63.66856857        0
H       28.49949333      34.17724130      64.71625333        0
H       29.19497907      37.08287521      65.32866370        0
H       28.14014078      36.04200657      66.30259687        0
H       27.03767810      35.10566270      63.22364241        0
H       25.10873885      36.13128353      60.72229113        0
H       23.86166397      35.56935274      61.87639068        0
H       25.37829254      34.69033448      61.71131772        0
H       23.77431713      39.30769522      62.34530355        0
H       23.77885316      37.90209432      61.44646957        0
H       25.81141174      40.60988480      64.90251686        0
H       24.73740792      40.50750262      63.56742307        0
H       23.48351158      40.88813026      65.66812833        0
H       24.13871660      39.40235160      66.37575819        0
H       23.02544660      39.31212762      65.00386055        0
H       26.56978145      39.41952992      66.41632877        0
H       27.71558822      38.23288723      66.64099147        0
C       50.62966077      39.42185980      44.32357773        0
C       51.34712625      39.40382306      42.97760344        0
C       52.14780321      40.63535547      42.58899780        0
C       52.69217199      40.75449468      41.28856939        0
C       53.32490770      41.96690648      40.89014928        0
C       53.52510594      43.00636189      41.83626856        0
C       53.12227815      42.80752839      43.17070539        0
C       52.40678297      41.65225637      43.51740751        0
C       53.40088615      43.82648601      44.24491898        0
N       54.30948121      44.13660496      41.51990503        0
C       53.80706943      42.13546485      39.45736132        0
C       55.25085025      41.68702434      39.28333307        0
N       52.43236457      39.74233570      40.33373999        0
H       50.04535580      38.50398336      44.44751956        0
H       49.94172736      40.27052949      44.39802676        0
H       51.33964263      39.47376829      45.15544000        0
H       50.57952598      39.23740796      42.21132523        0
H       52.02369825      38.54026788      42.96829242        0
H       52.05802444      41.55578358      44.54233535        0
H       52.83961433      44.74552339      44.04822999        0
H       54.47131205      44.05186371      44.29175937        0
H       53.10661590      43.46203424      45.23504620        0
H       54.29080478      44.40264352      40.54381542        0
H       54.12785032      44.93629478      42.11617007        0
H       53.16203992      41.58486559      38.76313873        0
H       53.69488516      43.17471975      39.13040083        0
H       55.56171304      41.81287873      38.24133460        0
H       55.37603399      40.63198529      39.54846345        0
H       55.93081075      42.27224154      39.91094900        0
H       53.13366737      39.69346103      39.60306710        0
H       52.28683148      38.82721618      40.74497611        0
C       28.42848922      53.16687801      62.31682612        0
C       27.02346522      52.77989297      62.76724702        0
C       25.88679924      53.72775142      62.42326324        0
C       24.59338609      53.51815738      62.95692824        0
C       23.56851265      54.48312009      62.73894469        0
C       23.80620331      55.58812384      61.87978322        0
C       25.04866272      55.69511376      61.22604442        0
C       26.07863277      54.79529423      61.53632763        0
C       25.32691568      56.78319895      60.22181447        0
N       22.75724408      56.45341661      61.50066210        0
C       22.21294146      54.31404110      63.40798300        0
C       21.23781511      53.53650095      62.53594646        0
N       24.38268488      52.45121372      63.86296416        0
H       29.15335493      52.43166529      62.68193292        0
H       28.71780012      54.14730279      62.70938407        0
H       28.50690476      53.19082179      61.22501971        0
H       27.05961487      52.66873003      63.85831185        0
H       26.79057777      51.79787285      62.33717282        0
H       27.04449117      54.94029515      61.05934871        0
H       25.32550931      57.76084626      60.71430416        0
H       24.57594033      56.77135151      59.42513612        0
H       26.30357733      56.65274751      59.74339372        0
H       22.02787929      56.56037858      62.19381605        0
H       23.07634709      57.35692132      61.16918348        0
H       22.31837939      53.81731939      64.37922859        0
H       21.78656262      55.28788181      63.67137349        0
H       20.27797627      53.42546424      63.05035491        0
H       21.61712436      52.53488979      62.30797265        0
H       21.05375720      54.04838266      61.58577437        0
H       23.41977015      52.13471823      63.88985389        0
H       25.00793511      51.66696084      63.71549102        0
C       48.41893486      49.58819818      45.33692766        0
C       47.57703511      50.32948634      44.30328096        0
C       48.23525707      50.68257465      42.98008690        0
C       47.57102600      51.51643547      42.04996928        0
C       48.24727453      51.95108964      40.87404449        0
C       49.53829353      51.44441788      40.57033039        0
C       50.11948875      50.48825691      41.42502037        0
C       49.48502394      50.15448768      42.63035919        0
C       51.43799105      49.83344584      41.10469861        0
N       50.15066867      51.71220235      39.32692056        0
C       47.57400576      52.93868691      39.93322889        0
C       46.77748927      52.23743544      38.84249718        0
N       46.31246804      52.06792902      42.38989806        0
H       47.84415548      49.45325737      46.25925660        0
H       49.32765858      50.14603007      45.58608637        0
H       48.70631390      48.59352378      44.98083821        0
H       47.23901100      51.25945255      44.77761101        0
H       46.69040752      49.71925047      44.09098963        0
H       49.98777593      49.45808988      43.29645763        0
H       52.24341453      50.57440251      41.12956963        0
H       51.40231961      49.36163068      40.11731888        0
H       51.68595681      49.04771275      41.82643851        0
H       49.89942455      52.60231349      38.91648809        0
H       51.15705507      51.58916030      39.33544283        0
H       46.92026007      53.62062154      40.48888107        0
H       48.31244210      53.61185531      39.48479238        0
H       46.29981685      52.97577415      38.19063768        0
H       45.99244019      51.60273773      39.26667785        0
H       47.41953225      51.60458388      38.22120264        0
H       45.75037591      52.30818355      41.58093118        0
H       45.77935635      51.49190464      43.03155733        0
C        6.09922127      12.60718347      44.48642259        0
C        6.15884694      12.32179090      45.98366161        0
C        7.43423089      12.69250952      46.72172224        0
C        7.62238643      12.29987124      48.06785680        0
C        8.87247006      12.53378568      48.70942548        0
C        9.88340817      13.27549563      48.04342318        0
C        9.61995706      13.80028215      46.76368913        0
C        8.42559849      13.46905496      46.10749914        0
C       10.60877603      14.68355495      46.04821858        0
N       11.05435071      13.67957962      48.72046792        0
C        9.11241520      12.00931433      50.11695145        0
C        8.72750357      13.02784267      51.18012163        0
N        6.63669460      11.50607437      48.70186232        0
H        5.15525125      12.23664701      44.07302889        0
H        6.91701563      12.11188116      43.95264053        0
H        6.14818644      13.68151022      44.28102538        0
H        5.99087133      11.24457406      46.10805834        0
H        5.32334510      12.84921315      46.46044915        0
H        8.27787463      13.84105351      45.09694912        0
H       11.51177695      14.11630214      45.80092137        0
H       10.87397135      15.54489884      46.66995718        0
H       10.19687321      15.07813354      45.11311656        0
H       11.35522493      13.05081555      49.45395731        0
H       11.82382025      13.90624796      48.10033595        0
H        8.56295060      11.07558129      50.28247751        0
H       10.15782351      11.70920129      50.24576461        0
H        8.90371308      12.61540760      52.17866223        0
H        7.66911962      13.29941237      51.10838733        0
H        9.31535558      13.94674461      51.08643892        0
H        6.64223250      11.59427390      49.71195509        0
H        5.70205814      11.65743060      48.33952995        0
C       18.02348580      31.73475395      10.89872220        0
C       16.77764886      32.50013315      10.46419509        0
C       16.95175687      33.60390893       9.43456630        0
C       15.87386016      34.46363237       9.11729692        0
C       16.08184255      35.57685511       8.25328657        0
C       17.33472423      35.74928963       7.60811805        0
C       18.34772535      34.79197675       7.80788650        0
C       18.15988943      33.76410703       8.74329586        0
C       19.66052033      34.85900622       7.07174231        0
N       17.50933726      36.73142398       6.60926758        0
C       14.95258554      36.56509186       8.00440922        0
C       14.11094421      36.17942402       6.79660627        0
N       14.64888476      34.32393816       9.81270015        0
H       17.76530483      31.01606948      11.68364657        0
H       18.78724285      32.40952755      11.29921070        0
H       18.45751467      31.17042018      10.06691099        0
H       16.34432086      32.94133566      11.37064622        0
H       16.05774014      31.77378724      10.06705912        0
H       18.98290082      33.07602600       8.91826254        0
H       20.22189650      35.74645168       7.38099895        0
H       19.49296411      34.88793869       5.99012845        0
H       20.28461974      33.98231256       7.27589946        0
H       16.93616342      37.55716351       6.72546664        0
H       18.47895633      36.98336723       6.45309771        0
H       14.31188529      36.65367575       8.88918247        0
H       15.34589847      37.57957644       7.87924861        0
H       13.30399694      36.90484743       6.65227065        0
H       13.65793135      35.19078043       6.92480801        0
H       14.71081286      36.15593381       5.88100099        0
H       13.85262701      34.67642999       9.29325784        0
H       14.47142683      33.37819772      10.13179650        0
C       35.14267675      47.15142572      28.11396545        0
C       36.18599360      46.56871550      27.16598466        0
C       35.96543755      45.15344965      26.65888742        0
C       36.97442234      44.49239404      25.91956290        0
C       36.81432661      43.12236332      25.56400614        0
C       35.58987914      42.45749039      25.83669821        0
C       34.53419363      43.17744798      26.42806596        0
C       34.74771948      44.49230811      26.86663033        0
C       33.17681987      42.56133330      26.64663191        0
N       35.33698478      41.16342718      25.33249121        0
C       37.94731185      42.38147929      24.87031421        0
C       37.84263973      42.46654482      23.35449911        0
N       38.21521319      45.14016883      25.70863459        0
H       35.45558511      48.14649669      28.44742180        0
H       35.01570889      46.52402986      29.00238476        0
H       34.17076630      47.26079839      27.62183616        0
H       37.14680621      46.59803157      27.69519744        0
H       36.26066700      47.23448282      26.29722595        0
H       33.93129669      45.00083768      27.37285962        0
H       33.24339105      41.75180856      27.38051222        0
H       32.77577483      42.17238295      25.70499438        0
H       32.45532277      43.29414907      27.02371940        0
H       36.15975717      40.58384475      25.22758142        0
H       34.60740039      40.66835391      25.83312546        0
H       38.92024518      42.76639667      25.19651500        0
H       37.97563731      41.33319977      25.18629984        0
H       38.67653096      41.93208606      22.88843576        0
H       37.87204436      43.50549981      23.00985382        0
H       36.91116867      42.02024302      22.99131380        0
H       38.70772078      44.80211965      24.88933230        0
H       38.14396296      46.15116928      25.68539107        0
C       12.83546913      29.59252676      51.63345920        0
C       14.20795409      30.21771909      51.40509890        0
C       14.48977005      30.81995094      50.03883883        0
C       15.79267696      31.25856923      49.70463359        0
C       16.07822343      31.69663996      48.37964579        0
C       15.02882490      31.81671973      47.43094555        0
C       13.70835974      31.53091604      47.82744858        0
C       13.46343597      31.00003401      49.10219003        0
C       12.53810546      31.73953217      46.90180494        0
N       15.24992927      32.42101912      46.17447630        0
C       17.50365482      32.05860634      47.99118873        0
C       17.79904004      33.53511322      48.21155845        0
N       16.84462956      31.07533140      50.63387226        0
H       12.79040919      29.14530923      52.63207680        0
H       12.62944371      28.80361370      50.90256592        0
H       12.03897774      30.34133025      51.57297481        0
H       14.94984925      29.43146036      51.59344757        0
H       14.35053113      31.00158326      52.15928235        0
H       12.44078507      30.73407799      49.35688422        0
H       12.59909641      31.04900343      46.05457859        0
H       12.51790714      32.77102207      46.53516976        0
H       11.58374265      31.56102278      47.40885327        0
H       16.18646021      32.30409755      45.80962646        0
H       14.55672197      32.17298120      45.47736341        0
H       18.22465136      31.44953605      48.54829284        0
H       17.70192295      31.78773899      46.94866303        0
H       18.83336033      33.75856698      47.93140537        0
H       17.66457784      33.81696027      49.26110818        0
H       17.14181336      34.16981016      47.60828398        0
H       17.60949993      31.72831499      50.50470969        0
H       16.53573118      31.08017861      51.59942757        0
C        3.38454504      46.62747124      34.38373588        0
C        4.59387439      46.52771265      33.45945261        0
C        5.83722098      47.31488417      33.83789714        0
C        6.92805690      47.40496315      32.94145510        0
C        8.03155183      48.25262703      33.24608654        0
C        8.09803819      48.90500595      34.50532039        0
C        7.08166295      48.67550065      35.45233429        0
C        5.95287626      47.92423149      35.09424989        0
C        7.14641999      49.25198429      36.84276768        0
N        9.26117192      49.59802194      34.90485591        0
C        9.14891944      48.43739473      32.23064392        0
C       10.27004766      47.42661272      32.42372174        0
N        6.82554806      46.80482187      31.66357120        0
H        2.54505733      46.06455180      33.96224670        0
H        3.06274643      47.66653704      34.50952626        0
H        3.59919728      46.20633327      35.37132424        0
H        4.26377919      46.86287600      32.46809538        0
H        4.87118842      45.46917714      33.38094513        0
H        5.15832697      47.81489353      35.82783917        0
H        7.07783091      50.34377483      36.80237853        0
H        8.07908703      48.95982369      37.33630098        0
H        6.32487611      48.88970193      37.47013450        0
H        9.78648731      50.01233086      34.14573266        0
H        9.09737660      50.27412913      35.64247080        0
H        8.76005031      48.36833194      31.20830408        0
H        9.54967796      49.45565063      32.27632467        0
H       11.05100144      47.58173500      31.67253331        0
H        9.90351617      46.39965232      32.32332509        0
H       10.72994754      47.52208644      33.41271318        0
H        7.72568645      46.57627902      31.25661141        0
H        6.21442614      45.99616108      31.64522793        0
C       13.40718930      24.48368993      25.52147400        0
C       12.08521043      23.72830308      25.61362280        0
C       10.91876450      24.24551255      24.78859658        0
C        9.62435690      23.70014861      24.95810384        0
C        8.51350856      24.27959532      24.28039231        0
C        8.72257343      25.31903257      23.33617271        0
C       10.03700745      25.74037891      23.05822108        0
C       11.10512815      25.23281235      23.81206688        0
C       10.33496634      26.76269434      21.99242393        0
N        7.66885941      25.78164892      22.51858312        0
C        7.10762244      23.76617810      24.55179643        0
C        6.71236866      22.64928910      23.59669372        0
N        9.41443777      22.70941266      25.94706344        0
H       14.13735281      24.04360256      26.20882790        0
H       13.28447192      25.53772728      25.79162396        0
H       13.83076905      24.42855735      24.51335489        0
H       11.78865637      23.73587940      26.67007192        0
H       12.27187889      22.68655634      25.32468935        0
H       12.10051565      25.62183727      23.61387525        0
H        9.91629377      27.73427751      22.27363872        0
H        9.91820236      26.44686600      21.03046709        0
H       11.41265001      26.89397755      21.84704648        0
H        6.75121952      25.72398047      22.94106109        0
H        7.83114611      26.70441184      22.13103032        0
H        7.01412092      23.41860545      25.58698643        0
H        6.37950512      24.58246741      24.49651411        0
H        5.70126844      22.29777427      23.82549376        0
H        7.39339185      21.79556508      23.67691339        0
H        6.72362881      22.98907973      22.55595228        0
H        8.61441883      22.11685311      25.75486540        0
H       10.23540093      22.14450561      26.13317704        0
C       27.85342648       9.68525201      64.40005897        0
C       27.85108168       9.01493575      65.77024123        0
C       26.70583466       9.34281069      66.71346829        0
C       26.73238033       8.89430574      68.05502865        0
C       25.72347171       9.31762484      68.96713598        0
C       24.62155120      10.08186011      68.50086975        0
C       24.52578925      10.38267160      67.12869310        0
C       25.58105879      10.04916184      66.26731827        0
C       23.33072628      11.09742683      66.55355717        0
N       23.51945753      10.35553000      69.33948419        0
C       25.81631773       8.92867863      70.43474413        0
C       25.09571256       7.62040207      70.72634046        0
N       27.86496014       8.18840687      68.52687040        0
H       28.76035320       9.41010783      63.85137815        0
H       27.83293794      10.77642054      64.48931555        0
H       26.99623508       9.36797959      63.79729477        0
H       28.79148644       9.29461941      66.26167018        0
H       27.86387909       7.92914322      65.61386115        0
H       25.50349790      10.34773287      65.22508209        0
H       23.27992847      12.12001395      66.94095556        0
H       22.40781940      10.56338561      66.80224091        0
H       23.38170919      11.15737311      65.46104668        0
H       23.74665176      10.43147108      70.32258744        0
H       22.96427400      11.14721605      69.03447597        0
H       26.86291537       8.85350505      70.75120885        0
H       25.41992743       9.72575806      71.07277103        0
H       25.19015392       7.36623075      71.78686560        0
H       25.51509004       6.79466527      70.14208559        0
H       24.02888873       7.68900811      70.48989318        0
H       27.66051465       7.58974416      69.31927320        0
H       28.34446543       7.66465973      67.80333577        0
C       26.89893943      56.97414102      41.52652006        0
C       28.28356329      56.64966480      40.97492167        0
C       28.36432044      55.72367689      39.77292554        0
C       29.61659563      55.24568791      39.32017952        0
C       29.67387380      54.27455955      38.27966795        0
C       28.48539612      53.88334215      37.60872956        0
C       27.26527419      54.49056149      37.96244382        0
C       27.21390007      55.36354410      39.05882479        0
C       25.98765407      54.19845599      37.21934686        0
N       28.53492937      53.06772476      36.45760203        0
C       31.01220948      53.67693574      37.87287979        0
C       31.67333660      54.46518373      36.75151284        0
N       30.78880968      55.59014503      40.03497205        0
H       26.99058368      57.59680142      42.42271557        0
H       26.35628176      56.06435444      41.80373176        0
H       26.29857126      57.53118855      40.79987045        0
H       28.85389918      56.19715868      41.79592207        0
H       28.77052893      57.59623050      40.70951303        0
H       26.24670471      55.76960529      39.34354230        0
H       25.69231368      53.15542811      37.37169260        0
H       26.11308077      54.39289277      36.14917715        0
H       25.16379624      54.83180205      37.56561703        0
H       29.30924313      52.41670738      36.43544750        0
H       27.66016985      52.59612953      36.25655654        0
H       31.68886457      53.61810113      38.73302164        0
H       30.89472595      52.62915960      37.57639713        0
H       32.63610175      54.01435456      36.49060652        0
H       31.85528602      55.50379126      37.04691306        0
H       31.05191014      54.47809844      35.85018628        0
H       31.62806824      55.55224307      39.46725228        0
H       30.72412342      56.48341046      40.50997870        0
C       29.12208114      35.09997191      47.11466387        0
C       28.67666349      35.14237802      48.57292780        0
C       28.11087724      36.45059376      49.09945178        0
C       27.84126148      36.61033592      50.47910223        0
C       27.43890239      37.88033732      50.98332346        0
C       27.18256608      38.95052209      50.08628120        0
C       27.29858290      38.72821311      48.70076849        0
C       27.79801731      37.50476788      48.23115567        0
C       26.93906786      39.78894729      47.69308609        0
N       26.60733301      40.15739916      50.53941970        0
C       27.26078869      38.08003336      52.48071126        0
C       25.83487350      37.79572243      52.92995612        0
N       28.16049977      35.56036383      51.37314383        0
H       29.56316777      34.12375503      46.88725625        0
H       29.87577861      35.86612011      46.90492036        0
H       28.27743309      35.24519686      46.43331012        0
H       29.55190443      34.87788919      49.17962824        0
H       27.91994190      34.36117502      48.71665746        0
H       27.93194076      37.38542525      47.15913027        0
H       27.62892795      40.63512303      47.77322356        0
H       25.91224966      40.13509621      47.85001298        0
H       26.99582235      39.40903097      46.66731102        0
H       26.84177607      40.40424351      51.49229984        0
H       26.76244462      40.94055923      49.91441869        0
H       27.95884175      37.44893770      53.04250108        0
H       27.55132950      39.09457276      52.77368746        0
H       25.74451083      37.93968297      54.01131903        0
H       25.54162045      36.76600815      52.70025276        0
H       25.11940119      38.46412802      52.43999638        0
H       27.61019535      35.57995830      52.22454169        0
H       28.11940409      34.64120712      50.94746689        0
C       29.79663709      41.30461057      74.73675531        0
C       29.09088147      40.04834236      75.23718314        0
C       27.75657333      39.69005175      74.60471208        0
C       26.97003149      38.64178389      75.13775239        0
C       25.66337367      38.40054981      74.62444262        0
C       25.20093057      39.12427994      73.49393404        0
C       26.05992796      40.05148981      72.87350517        0
C       27.29959430      40.35094805      73.45689293        0
C       25.67015071      40.77357711      71.60998014        0
N       23.99127153      38.77818259      72.85383913        0
C       24.77543723      37.35003044      75.27386630        0
C       24.94471226      35.98126599      74.63065744        0
N       27.41013230      37.96960681      76.30315108        0
H       30.70944437      41.47623105      75.31692797        0
H       29.16007017      42.18925586      74.84268244        0
H       30.08886533      41.20840454      73.68598863        0
H       28.93544100      40.18016614      76.31539796        0
H       29.77309864      39.20063473      75.09741395        0
H       27.91418613      41.11437827      72.98692720        0
H       24.82879016      41.44650977      71.80392959        0
H       25.39633344      40.05794613      70.82786945        0
H       26.49557443      41.37708451      71.21726333        0
H       23.28763429      38.38613087      73.46626572        0
H       23.60313820      39.52515652      72.28867717        0
H       24.97731530      37.28153827      76.34891126        0
H       23.72406205      37.65463169      75.23688639        0
H       24.29986117      35.24912158      75.12701157        0
H       25.97854123      35.62874050      74.70809084        0
H       24.67710559      36.00127695      73.56918986        0
H       27.03162729      37.03303031      76.39064760        0
H       28.41883203      37.95334228      76.40314645        0
C       26.34689865       4.98821899      57.66455589        0
C       25.38645695       4.82139555      58.83777817        0
C       24.32904792       5.89345383      59.04111830        0
C       23.52183218       5.89170028      60.20303277        0
C       22.62772520       6.97268456      60.45017876        0
C       22.45081519       7.98469870      59.47027122        0
C       23.14164384       7.88504702      58.24742537        0
C       24.09562456       6.87305001      58.06694819        0
C       22.91829699       8.86659164      57.12648014        0
N       21.44066670       8.96120745      59.60742278        0
C       21.84560256       7.02711663      61.75367196        0
C       20.49239345       6.34062341      61.63774102        0
N       23.74993867       4.91633805      61.20318316        0
H       27.08961546       4.18349806      57.67274208        0
H       26.88352361       5.94109528      57.72019488        0
H       25.82055235       4.93927492      56.70574016        0
H       26.00081169       4.76850103      59.74544379        0
H       24.87641000       3.85716523      58.72083408        0
H       24.65478150       6.85851477      57.13498851        0
H       23.26628499       9.86178833      57.42114984        0
H       21.85692444       8.91138869      56.86137209        0
H       23.46278314       8.57804745      56.22091454        0
H       21.21751720       9.20520241      60.56374229        0
H       21.60197957       9.79284422      59.05030159        0
H       22.42058267       6.57665424      62.57076994        0
H       21.71380615       8.06312223      62.08361331        0
H       19.96144495       6.39006421      62.59371439        0
H       20.60183848       5.28553800      61.36591561        0
H       19.86448570       6.81793119      60.87837527        0
H       22.93418104       4.73528076      61.77751317        0
H       24.12661093       4.04749833      60.84127943        0
C       32.91639052       2.84820580      19.26973473        0
C       32.91441580       4.27168921      18.72162897        0
C       31.69650640       5.13473114      19.00557495        0
C       31.55359665       6.39793438      18.38465632        0
C       30.34932915       7.14040565      18.55052268        0
C       29.34654592       6.67517626      19.44140763        0
C       29.57447893       5.49647520      20.17709574        0
C       30.71750726       4.72546570      19.92054218        0
C       28.59857849       5.00659355      21.21510643        0
N       28.23158342       7.47831881      19.76482764        0
C       30.15100706       8.44338087      17.79111692        0
C       30.63789455       9.64740292      18.58431253        0
N       32.52700836       6.82388441      17.44940177        0
H       33.81932381       2.32285879      18.94111182        0
H       32.04974581       2.28181488      18.91313473        0
H       32.91228623       2.84038607      20.36457973        0
H       33.03319579       4.19270161      17.63363139        0
H       33.79761626       4.78680495      19.11934324        0
H       30.83517612       3.79055445      20.46230928        0
H       27.65705751       4.71365342      20.73964177        0
H       28.40772970       5.78566319      21.96037682        0
H       28.98455543       4.13491220      21.75451853        0
H       27.93475936       8.10398758      19.02705373        0
H       27.44569759       6.95286092      20.13130143        0
H       30.65961371       8.40880481      16.82091519        0
H       29.09909981       8.57551860      17.51621702        0
H       30.48917641      10.56492698      18.00615311        0
H       31.70403983       9.56552804      18.82032784        0
H       30.09369613       9.75208599      19.52856712        0
H       32.57455181       7.83222482      17.35407881        0
H       33.44962057       6.44211088      17.62482823        0
C       44.41835779      51.21026026      16.60216238        0
C       43.14848111      51.35939770      17.43396770        0
C       42.61929165      52.76456116      17.66687151        0
C       41.55116594      52.98726650      18.56751316        0
C       41.15047318      54.31765560      18.88143288        0
C       41.73356073      55.41460404      18.19411811        0
C       42.68095323      55.16621626      17.18254625        0
C       43.13909387      53.85900540      16.96323808        0
C       43.25808348      56.27720632      16.34442118        0
N       41.22720068      56.72301402      18.35045965        0
C       40.08045379      54.55871525      19.93534082        0
C       38.68453070      54.61086537      19.33154707        0
N       41.02007739      51.89554911      19.29536132        0
H       44.71958555      50.15801069      16.56605566        0
H       45.24703571      51.78224189      17.03247065        0
H       44.26302669      51.54273353      15.57061145        0
H       43.35388109      50.90353330      18.41074043        0
H       42.35783514      50.77319972      16.94939079        0
H       43.91406253      53.70794925      16.21622924        0
H       43.86523720      56.94285420      16.96620860        0
H       42.45855500      56.85029914      15.86367220        0
H       43.89990377      55.89041218      15.54552883        0
H       40.82441302      56.91319745      19.25901268        0
H       41.88665260      57.44726190      18.08851741        0
H       40.11934484      53.78649960      20.71208922        0
H       40.28392477      55.48067356      20.49043688        0
H       37.94002619      54.77592548      20.11685209        0
H       38.43522875      53.67500558      18.82057988        0
H       38.59265457      55.42367143      18.60378867        0
H       40.06330405      52.04418362      19.59634268        0
H       41.10406009      51.00868559      18.81146178        0
C       52.75158520      24.97656556      27.91439990        0
C       51.30512143      24.91654683      27.43391148        0
C       50.89543947      25.85578874      26.31196882        0
C       49.53614607      25.97443148      25.93794888        0
C       49.14437909      26.95289010      24.97973553        0
C       50.13083021      27.71911099      24.30482199        0
C       51.49163583      27.47436351      24.57096741        0
C       51.85225279      26.58406739      25.59278803        0
C       52.58818695      28.17699487      23.81352650        0
N       49.78570830      28.55887141      23.22386262        0
C       47.67058418      27.15733872      24.66366192        0
C       47.20801146      26.28611746      23.50483157        0
N       48.55399725      25.25466517      26.65974180        0
H       52.89228404      24.29634970      28.76102925        0
H       53.02085536      25.98499585      28.24545460        0
H       53.44826666      24.66962324      27.12751686        0
H       50.67247985      25.12633077      28.30560053        0
H       51.10036364      23.88859003      27.10996242        0
H       52.90935534      26.46156734      25.81402215        0
H       52.57585168      29.24825340      24.03846054        0
H       52.46790923      28.02581735      22.73580698        0
H       53.57754419      27.79160385      24.08263240        0
H       48.85578019      28.95412927      23.27753940        0
H       50.47403828      29.27854434      23.03334157        0
H       47.05265414      26.95789110      25.54658362        0
H       47.46308642      28.21075888      24.44735234        0
H       46.14341768      26.45103200      23.31072058        0
H       47.35119385      25.22260621      23.72281119        0
H       47.75765907      26.51589578      22.58623664        0
H       47.71092558      25.08235648      26.12342371        0
H       48.90021237      24.39018104      27.06041754        0
C       16.58152434      38.73524679      30.08637017        0
C       15.48725086      38.38431496      31.08943608        0
C       15.82084396      37.37004950      32.17052407        0
C       14.80706990      36.87221111      33.02261835        0
C       15.10108769      35.82503639      33.94240859        0
C       16.43744678      35.37102823      34.09638763        0
C       17.46288958      35.99048220      33.35661030        0
C       17.13899926      36.94413852      32.38068826        0
C       18.91246117      35.62882357      33.55097370        0
N       16.78546254      34.47036059      35.12617532        0
C       13.98585574      35.21235073      34.77586356        0
C       13.81636083      35.91955289      36.11265986        0
N       13.46782427      37.28277823      32.81885217        0
H       16.18921286      39.42554579      29.33214871        0
H       16.94818549      37.84358915      29.56719625        0
H       17.42867484      39.22867923      30.57383710        0
H       14.63713229      38.00200584      30.51045022        0
H       15.16934619      39.31295114      31.57947217        0
H       17.94739412      37.36045361      31.78520855        0
H       19.09051700      34.59740989      33.23031146        0
H       19.19873738      35.74219430      34.60168477        0
H       19.57372494      36.27797834      32.96693579        0
H       16.04980290      33.82784036      35.39046477        0
H       17.65389454      33.97548291      34.95603564        0
H       13.03761920      35.22666359      34.22649098        0
H       14.16437878      34.14378151      34.93657620        0
H       13.00157181      35.46037674      36.68144095        0
H       13.57803090      36.97958481      35.97626464        0
H       14.72677450      35.85689661      36.71759651        0
H       12.89683331      37.21052342      33.65362507        0
H       13.38659204      38.20900664      32.41482121        0
C       20.48317863      56.25329343      68.49960323        0
C       19.70837458      54.93961059      68.52499850        0
C       19.24750963      54.41900696      69.87605193        0
C       18.67876545      53.12858926      69.99005982        0
C       18.37357775      52.59630367      71.27558227        0
C       18.51777734      53.40791067      72.43151874        0
C       18.93103216      54.74583982      72.28423436        0
C       19.32807576      55.21744343      71.02457744        0
C       19.00199130      55.68910450      73.45685895        0
N       18.04959562      52.97135732      73.68969477        0
C       17.87004063      51.16675460      71.40447378        0
C       16.35110916      51.08864007      71.35316004        0
N       18.59869556      52.30333261      68.84279999        0
H       20.80480962      56.47733264      67.47704224        0
H       21.37754810      56.20161536      69.12926022        0
H       19.86443247      57.09007070      68.83978045        0
H       20.35555584      54.18088100      68.06720785        0
H       18.82480208      55.05746999      67.88548876        0
H       19.69847132      56.23689856      70.95432807        0
H       19.77739806      55.36294700      74.15736447        0
H       18.03669105      55.73485875      73.97154595        0
H       19.24571668      56.70944196      73.14176947        0
H       18.08097332      51.96926459      73.82644955        0
H       18.47528549      53.45650237      74.47164616        0
H       18.30017589      50.53136925      70.62189041        0
H       18.23843021      50.70787756      72.32819461        0
H       16.02403634      50.04754626      71.43908358        0
H       15.96228010      51.48854647      70.41084411        0
H       15.89275339      51.65450020      72.17074154        0
H       17.86784811      51.60326506      68.90496643        0
H       18.51649639      52.82332808      67.97643588        0
C        7.21411878      54.89051878      56.72728527        0
C        8.29468094      55.80074527      56.15230528        0
C        9.49009529      55.14151165      55.48509797        0
C       10.60508030      55.91604607      55.08691408        0
C       11.77447780      55.27525160      54.58598758        0
C       11.77462107      53.87297311      54.36394346        0
C       10.59963473      53.13803886      54.61255037        0
C        9.49595630      53.76870964      55.20495009        0
C       10.50057442      51.66795571      54.29810723        0
N       12.84782717      53.24214472      53.69831289        0
C       13.01279346      56.09887092      54.26661516        0
C       13.02779840      56.57161419      52.82017938        0
N       10.62191855      57.30266627      55.37093126        0
H        6.44823131      55.49114388      57.22921845        0
H        7.62911453      54.19305902      57.46237961        0
H        6.71592235      54.31385172      55.94114344        0
H        8.66185722      56.41955396      56.98076399        0
H        7.81996727      56.46634718      55.42074192        0
H        8.62544900      53.16135210      55.43893827        0
H       11.17948814      51.09791876      54.94035044        0
H       10.74589849      51.48289621      53.24721722        0
H        9.48727777      51.28593087      54.46260315        0
H       13.74742943      53.68448164      53.83589953        0
H       12.90446564      52.24517782      53.87402475        0
H       13.08985627      56.96105758      54.93882278        0
H       13.92320728      55.53061287      54.48517561        0
H       13.92557658      57.16756177      52.62762651        0
H       12.15475526      57.19265180      52.59394843        0
H       13.02739119      55.72774369      52.12260528        0
H       11.22155986      57.83067315      54.74664267        0
H        9.69802702      57.71832513      55.40822633        0
C       37.60243816      50.52323730      40.96015243        0
C       37.08078256      50.57168810      42.39272242        0
C       36.12978751      49.47193832      42.83422987        0
C       35.47611910      49.55066371      44.08649402        0
C       34.48670623      48.58691850      44.43476515        0
C       34.24942819      47.47518776      43.58421094        0
C       35.02479301      47.32424330      42.41864163        0
C       35.91725725      48.33754869      42.03981588        0
C       34.89652195      46.11420354      41.53028235        0
N       33.41298886      46.41341603      43.99138398        0
C       33.70362992      48.73799422      45.73004150        0
C       34.37234350      48.01503732      46.89023255        0
N       35.67015001      50.69395695      44.89821899        0
H       38.22357777      51.40245445      40.75907080        0
H       36.78106898      50.51958701      40.23601527        0
H       38.22261671      49.63726374      40.78929287        0
H       36.57004990      51.53556944      42.51176601        0
H       37.94643607      50.56483966      43.06663712        0
H       36.45741476      48.21891308      41.10409581        0
H       33.90691569      46.09224618      41.06280009        0
H       35.05155097      45.19652134      42.10701982        0
H       35.64329695      46.11898723      40.72898578        0
H       32.66166538      46.68345841      44.61304820        0
H       33.06203087      45.85512409      43.22121247        0
H       33.56894894      49.79623398      45.98135257        0
H       32.67640744      48.37885298      45.60606265        0
H       33.78890878      48.15184969      47.80626862        0
H       35.38162743      48.39910832      47.07163789        0
H       34.45319239      46.93994551      46.69952787        0
H       35.50676811      50.51657703      45.88307428        0
H       36.57271568      51.13571679      44.76419578        0
C       48.12742838      17.30046715      15.88234560        0
C       46.70944913      17.13366487      16.41922609        0
C       45.76862912      18.32146604      16.30628317        0
C       44.50190626      18.29392202      16.93580689        0
C       43.68285944      19.45933666      16.93834695        0
C       44.07839946      20.60554620      16.19980762        0
C       45.26569257      20.55985396      15.44431179        0
C       46.10973040      19.44398054      15.54031082        0
C       45.68684057      21.70184097      14.55643122        0
N       43.20377016      21.70106008      16.03351636        0
C       42.37356665      19.46444715      17.71262048        0
C       41.19942155      19.01797570      16.85358945        0
N       44.14389545      17.17299414      17.72258118        0
H       48.71125307      16.39584107      16.08252409        0
H       48.63875424      18.14272670      16.36002750        0
H       48.12961917      17.45944973      14.79907126        0
H       46.80121350      16.86793457      17.47991133        0
H       46.25015395      16.28414260      15.89872270        0
H       47.04760872      19.46420695      14.99131925        0
H       45.92105713      22.58374005      15.16119476        0
H       44.89349464      21.94545532      13.84224985        0
H       46.57885513      21.45260741      13.97165380        0
H       42.56394999      21.85004329      16.80313342        0
H       43.67589922      22.56289511      15.78379629        0
H       42.44546017      18.82736258      18.60150865        0
H       42.17552122      20.45638104      18.13260187        0
H       40.27707901      19.02440727      17.44306266        0
H       41.34841237      18.00326238      16.46988241        0
H       41.05540848      19.68205853      15.99511322        0
H       43.14116448      17.04780471      17.80598041        0
H       44.58324503      16.31079892      17.42037244        0
C       11.57015205      28.09501949      33.22586039        0
C       11.74171066      27.62907536      31.78357313        0
C       12.09129094      28.67757396      30.74087743        0
C       12.09471082      28.34622246      29.36543567        0
C       12.29133512      29.36412162      28.38857559        0
C       12.61294277      30.68549141      28.79629973        0
C       12.76641425      30.96286160      30.16817397        0
C       12.46450057      29.97477332      31.11649819        0
C       13.20978794      32.31599310      30.66040034        0
N       12.99350530      31.66510915      27.85380246        0
C       12.18058307      29.02725300      26.90937759        0
C       13.52170052      28.62649342      26.31214772        0
N       11.71027853      27.04379577      28.96598431        0
H       11.26110742      27.25408791      33.85561950        0
H       10.80424716      28.87352679      33.30555582        0
H       12.50791894      28.48444106      33.63538166        0
H       10.79742326      27.15378573      31.48945150        0
H       12.52368723      26.85974679      31.76907795        0
H       12.53551487      30.23795553      32.16869052        0
H       12.44771924      33.06848524      30.43379674        0
H       14.15883951      32.60159690      30.19506999        0
H       13.37017511      32.32028643      31.74392676        0
H       12.57201537      31.55713614      26.94025753        0
H       12.88731940      32.61540833      28.19096945        0
H       11.44900951      28.22753599      26.74683393        0
H       11.75752133      29.86900354      26.35079545        0
H       13.40423469      28.38235441      25.25156594        0
H       13.93735991      27.74832866      26.81724812        0
H       14.25431618      29.43615059      26.39250179        0
H       12.09537004      26.77167907      28.06834616        0
H       11.90457190      26.33390877      29.66315667        0
C        7.24766684      45.17274057       3.58910113        0
C        7.08989244      46.51830667       4.29002049        0
C        6.84894929      46.50772640       5.79022197        0
C        6.52320065      47.70411301       6.47153868        0
C        6.16797492      47.66387140       7.85038991        0
C        6.26655355      46.44557840       8.57270078        0
C        6.74920401      45.29612750       7.91822556        0
C        6.99148658      45.33103020       6.53733088        0
C        6.97769071      44.00068258       8.65269692        0
N        6.10069200      46.41558674       9.97426073        0
C        5.70725541      48.93232922       8.55219151        0
C        6.86522454      49.68527454       9.19099402        0
N        6.36447550      48.90075239       5.73226513        0
H        7.35301088      45.32416578       2.50963642        0
H        6.37562951      44.53153655       3.75476219        0
H        8.14134431      44.64312746       3.93495384        0
H        6.24529106      47.02868136       3.81017399        0
H        7.99394406      47.10807226       4.09398192        0
H        7.30633521      44.41159105       6.05058804        0
H        6.02439232      43.59181850       9.00254644        0
H        7.64671393      44.15581816       9.50542291        0
H        7.44704181      43.24802685       8.01005326        0
H        5.46583329      47.11427486      10.33849361        0
H        5.87296779      45.49629044      10.33628498        0
H        5.17674355      49.59106941       7.85520791        0
H        4.94672398      48.70359581       9.30638789        0
H        6.50037140      50.59521250       9.67795490        0
H        7.61182361      49.97709258       8.44500170        0
H        7.36984915      49.07676617       9.94848908        0
H        6.51900576      49.73569865       6.28641524        0
H        6.92303485      48.92999038       4.88675028        0
C       37.01931930      53.20998973       4.15878095        0
C       36.65427994      52.18094693       5.22393164        0
C       37.41674776      50.86663659       5.22500907        0
C       37.01393999      49.80588364       6.07010945        0
C       37.64871529      48.53473552       5.96872797        0
C       38.77001423      48.36832392       5.11392715        0
C       39.26070791      49.47867359       4.40057592        0
C       38.55847137      50.69221250       4.43182184        0
C       40.50829618      49.39485132       3.56014198        0
N       39.52885188      47.17812338       5.13310919        0
C       37.13881148      47.36429304       6.79567157        0
C       37.84422285      47.26381518       8.14035993        0
N       35.85680961      49.95962533       6.87078268        0
H       36.35527894      54.07749485       4.23465129        0
H       36.91597615      52.79509347       3.15070527        0
H       38.04554379      53.57023347       4.28468289        0
H       35.58714862      51.95875896       5.09763946        0
H       36.78528573      52.65199862       6.20602721        0
H       38.92964165      51.51294332       3.82350437        0
H       40.34700044      48.72319932       2.71090138        0
H       41.35110878      49.03484508       4.15919386        0
H       40.79418988      50.37389943       3.16076549        0
H       39.00180783      46.34605234       5.36496825        0
H       40.08016372      47.03489199       4.29432102        0
H       36.05641291      47.44010052       6.95005481        0
H       37.24641231      46.42413202       6.24425655        0
H       37.44752750      46.41875413       8.71197205        0
H       37.70065574      48.17173628       8.73545676        0
H       38.92148193      47.11164070       8.01754705        0
H       35.85630393      49.36252703       7.69027679        0
H       35.67329966      50.92111577       7.13459890        0
C       22.95869154      16.49601209       1.75305691        0
C       22.97483674      16.21499563       3.25222265        0
C       21.96181865      16.94579064       4.11738334        0
C       22.03392405      16.86447731       5.52799828        0
C       21.16590370      17.65770323       6.33196890        0
C       20.14281683      18.43000731       5.72161798        0
C       19.98015654      18.37287385       4.32419033        0
C       20.90999651      17.67158059       3.54292561        0
C       18.84984380      19.08353799       3.62620647        0
N       19.15691771      19.07532025       6.49902005        0
C       21.32142328      17.65615372       7.84510619        0
C       20.45752832      16.59288499       8.50770176        0
N       23.09554385      16.14465724       6.12673639        0
H       23.77448161      15.95429025       1.26285793        0
H       23.09150229      17.56289870       1.54533222        0
H       22.02187570      16.16466224       1.29333209        0
H       23.98003788      16.46894241       3.61162235        0
H       22.82984923      15.13685995       3.39422972        0
H       20.79106005      17.69574415       2.46279282        0
H       18.96707019      20.16743471       3.72504072        0
H       17.88631354      18.77769964       4.04676929        0
H       18.82199264      18.84774223       2.55690920        0
H       19.46911526      19.37038757       7.41517736        0
H       18.69033169      19.83388699       6.01435567        0
H       22.37023528      17.51009604       8.12764498        0
H       21.08686183      18.64231404       8.25984460        0
H       20.60052490      16.61330319       9.59276898        0
H       20.71520778      15.58999178       8.15150098        0
H       19.39417303      16.75661117       8.30473267        0
H       22.87602329      15.81140074       7.05885658        0
H       23.44203529      15.38433781       5.55263116        0
C       23.78979523      31.43746531      73.77794967        0
C       23.21727476      30.03456956      73.95354202        0
C       21.79817387      29.91347981      74.48293785        0
C       21.26955925      28.64831568      74.83160940        0
C       19.99027353      28.55771935      75.45149309        0
C       19.19076531      29.72140441      75.60086593        0
C       19.66445496      30.94916678      75.10012214        0
C       20.96809887      31.03708048      74.59063917        0
C       18.82231557      32.19802375      75.13157665        0
N       17.85186421      29.63254621      76.03930396        0
C       19.47308084      27.20958502      75.92984314        0
C       18.66132658      26.49568803      74.85872508        0
N       22.09642652      27.50311744      74.73954220        0
H       24.83323697      31.37666874      73.45114062        0
H       23.76428427      31.99960997      74.71729937        0
H       23.24022286      32.00229217      73.01788100        0
H       23.88684633      29.50261803      74.64113779        0
H       23.26295708      29.52820212      72.98139540        0
H       21.32535283      32.01122305      74.26686075        0
H       18.64703927      32.50922327      76.16635944        0
H       17.86354203      32.02707771      74.63124527        0
H       19.31103251      33.02931944      74.61208150        0
H       17.66535325      28.86417988      76.67073337        0
H       17.48819189      30.50277791      76.41141253        0
H       20.30083039      26.56927820      76.25542796        0
H       18.87459476      27.32476538      76.83983606        0
H       18.31332882      25.52737034      75.23221432        0
H       19.25839269      26.31614128      73.95853204        0
H       17.78263841      27.07956509      74.56594210        0
H       21.57390510      26.64172986      74.62517418        0
H       22.81273386      27.57871515      74.02615062        0
C       39.33218392      31.96633302      57.11597951        0
C       37.98864708      31.60556093      57.74166401        0
C       36.91530193      32.68053505      57.77529176        0
C       35.71341365      32.47012851      58.49141969        0
C       34.77234039      33.53045410      58.62971717        0
C       34.97788489      34.75514544      57.94155209        0
C       36.09927629      34.89089978      57.10096971        0
C       37.06738782      33.87697387      57.06219529        0
C       36.31882999      36.12290778      56.26205116        0
N       33.97617137      35.74934410      57.91123899        0
C       33.53610699      33.33921562      59.49512344        0
C       32.35472512      32.80917303      58.69557386        0
N       35.54604788      31.27211074      59.22654348        0
H       40.02722856      31.12570134      57.21356217        0
H       39.78264497      32.83362097      57.60987398        0
H       39.23082721      32.18609983      56.04818135        0
H       38.19318745      31.29214826      58.77317852        0
H       37.58714578      30.73956079      57.20091973        0
H       37.95071563      34.03732680      56.44946735        0
H       36.50043192      36.99005524      56.90502733        0
H       35.44921069      36.31310621      55.62456582        0
H       37.18393036      36.01278391      55.59929473        0
H       33.38671275      35.77879921      58.73315577        0
H       34.32800601      36.67303267      57.68532444        0
H       33.74875491      32.66507615      60.33267013        0
H       33.26260509      34.27581420      59.99263626        0
H       31.48702170      32.67474647      59.34922213        0
H       32.58504597      31.84221683      58.23620417        0
H       32.07003426      33.49996942      57.89527475        0
H       34.57329990      31.02673519      59.37368092        0
H       36.05345177      30.48546288      58.83735817        0
C       13.11524045      25.47258226      38.80982092        0
C       12.18736399      26.57348219      39.31360009        0
C       12.82184969      27.87771468      39.76656315        0
C       12.04073997      28.87073502      40.40329211        0
C       12.66663933      30.03043349      40.94401836        0
C       14.05251485      30.25287358      40.73057508        0
C       14.78405372      29.33406938      39.95393078        0
C       14.17482797      28.14713980      39.52169090        0
C       16.23048267      29.56581821      39.60184035        0
N       14.65696180      31.47616612      41.09248543        0
C       11.84317825      31.04076436      41.72818454        0
C       11.28289779      32.13824116      40.83514575        0
N       10.67454012      28.61244592      40.66871550        0
H       12.53539166      24.57337206      38.57643836        0
H       13.86245696      25.20404554      39.56387053        0
H       13.63526987      25.77439977      37.89481319        0
H       11.62595615      26.15339759      40.15765969        0
H       11.47128541      26.80207379      38.51451231        0
H       14.78259896      27.43072203      38.97508628        0
H       16.84869459      29.53335921      40.50467076        0
H       16.35431916      30.53391745      39.10560540        0
H       16.60702022      28.80214112      38.91279119        0
H       14.23709390      31.93349922      41.89150584        0
H       15.66354863      31.41574231      41.19811444        0
H       11.02505354      30.54421952      42.26230325        0
H       12.43701873      31.48109678      42.53626873        0
H       10.68945361      32.84097172      41.42863507        0
H       10.63645873      31.72584709      40.05340401        0
H       12.08230796      32.70283225      40.34432249        0
H       10.11806828      29.45579861      40.75352444        0
H       10.24848758      27.97360578      40.00682330        0
C       57.90372375      24.58584006      52.98534253        0
C       56.47560522      24.19497437      53.35198992        0
C       55.37023039      25.18962945      53.03961549        0
C       54.05355720      24.96695736      53.50698516        0
C       53.05529088      25.96676334      53.32563525        0
C       53.34580602      27.12871933      52.56330475        0
C       54.61439862      27.25929332      51.96652178        0
C       55.61533912      26.31730449      52.24502549        0
C       54.95076410      28.41457116      51.05986680        0
N       52.32794769      28.04191672      52.21285532        0
C       51.67198838      25.77547783      53.92867526        0
C       50.71770226      25.08689678      52.96374939        0
N       53.78886782      23.83881901      54.31994780        0
H       58.60064865      23.81011022      53.31972244        0
H       58.19503772      25.52736399      53.46252609        0
H       58.02484384      24.69109274      51.90228420        0
H       56.46741839      24.00045239      54.43188835        0
H       56.24208995      23.25354137      52.83940973        0
H       56.60140499      26.47807293      51.81695518        0
H       54.94770020      29.35176225      51.62555737        0
H       54.23116359      28.47891926      50.23716688        0
H       55.94276451      28.30062947      50.60961748        0
H       51.57427048      28.11098300      52.88447782        0
H       52.67573798      28.96119057      51.96385118        0
H       51.73079480      25.20426827      54.86217891        0
H       51.25315786      26.73511311      54.24995447        0
H       49.73680465      24.95701617      53.43194455        0
H       51.08763687      24.09786161      52.67386958        0
H       50.57980065      25.67324873      52.04947277        0
H       52.82014102      23.54124898      54.28651621        0
H       54.40527496      23.05524095      54.13613695        0
C       34.64778926      53.78148959      64.78494708        0
C       36.16444047      53.61873368      64.78204014        0
C       36.74098174      52.37282210      65.43325018        0
C       38.13755413      52.24265659      65.61842055        0
C       38.65868344      51.13601898      66.34836089        0
C       37.79075667      50.09751003      66.77718585        0
C       36.42458296      50.16208466      66.44263221        0
C       35.91405966      51.30913076      65.81777994        0
C       35.47153914      49.04353860      66.77488827        0
N       38.30238617      48.90643434      67.33607209        0
C       40.14843650      51.05726617      66.64535755        0
C       40.90833210      50.30432344      65.56298807        0
N       38.98801054      53.31112528      65.24591091        0
H       34.37486253      54.74513233      64.34203094        0
H       34.24515652      53.75365491      65.80286034        0
H       34.15968924      52.99904245      64.19477896        0
H       36.57853436      54.49662899      65.29381404        0
H       36.50403609      53.64671631      63.73922870        0
H       34.84503835      51.35356915      65.62637654        0
H       35.36178734      48.95089295      67.86011344        0
H       35.83125425      48.09664935      66.35918824        0
H       34.47618374      49.22085376      66.35346338        0
H       39.16962871      49.01844894      67.84520800        0
H       37.62368028      48.39237918      67.88664557        0
H       40.57378208      52.05997375      66.76712072        0
H       40.32508624      50.59174075      67.62086775        0
H       41.97590443      50.27464999      65.80308098        0
H       40.79466342      50.78637929      64.58637449        0
H       40.55511200      49.27224220      65.46933404        0
H       39.93660302      53.01472648      65.04487046        0
H       38.62358248      53.86982297      64.48250549        0
C        9.39626048      53.14659181      37.51365909        0
C        8.82799517      54.41957224      36.89452730        0
C        7.32233315      54.50099736      36.70711908        0
C        6.74762955      55.57340695      35.98510868        0
C        5.35216031      55.57214800      35.69927750        0
C        4.51678962      54.56417738      36.24867681        0
C        5.07959042      53.59451826      37.10046499        0
C        6.46938349      53.55020978      37.28295099        0
C        4.23249411      52.56295794      37.79913734        0
N        3.11182739      54.64280105      36.13607434        0
C        4.75593365      56.66549018      34.82584184        0
C        4.27214597      57.85253910      35.64605651        0
N        7.59381357      56.53780852      35.38713957        0
H       10.49004523      53.19690793      37.53300424        0
H        9.11097391      52.26039861      36.93719706        0
H        9.05541976      53.01636551      38.54595375        0
H        9.30300056      54.53368002      35.91196140        0
H        9.14020906      55.26596776      37.51878769        0
H        6.87854912      52.75346902      37.89874661        0
H        3.78295923      51.88472596      37.06683815        0
H        3.44422672      53.04668430      38.38517834        0
H        4.82327297      51.95752978      38.49498866        0
H        2.78142951      55.10614451      35.29939858        0
H        2.64401252      53.75255979      36.26509105        0
H        5.48157641      57.00366464      34.07734451        0
H        3.93562241      56.27085442      34.21683340        0
H        3.85862295      58.62262600      34.98711745        0
H        5.08987913      58.30160462      36.21940206        0
H        3.48992577      57.55879786      36.35356965        0
H        7.13884368      57.43205994      35.24080424        0
H        8.47158255      56.66462721      35.87823773        0
C        6.41812075      15.18541228      62.00902700        0
C        6.22740077      16.29153510      63.04190987        0
C        6.73176692      17.68060461      62.68853938        0
C        6.74352480      18.70719307      63.66199890        0
C        7.34065878      19.96527411      63.36250176        0
C        7.80655662      20.23413932      62.04859945        0
C        7.63927374      19.25837657      61.04738511        0
C        7.14745074      17.98960732      61.38668423        0
C        8.01472713      19.52037446      59.61203716        0
N        8.23026117      21.52867393      61.67787793        0
C        7.45535129      21.02731626      64.44540771        0
C        6.24869273      21.95434492      64.46733411        0
N        6.33727244      18.41133659      64.98528754        0
H        6.06792125      14.23069894      62.41541818        0
H        7.47287697      15.06879517      61.73898064        0
H        5.84432361      15.38455371      61.09805878        0
H        6.73780743      15.96314887      63.95609475        0
H        5.15537970      16.36410543      63.26342349        0
H        7.08596558      17.23921215      60.60275614        0
H        9.09797001      19.65068460      59.52289421        0
H        7.50455142      20.41442752      59.23895459        0
H        7.72439118      18.69001998      58.95935925        0
H        8.63965604      22.06925321      62.42890798        0
H        8.82552297      21.54124856      60.85718869        0
H        7.58516670      20.56507039      65.43062055        0
H        8.37419498      21.61019846      64.32085326        0
H        6.35948526      22.69863076      65.26231801        0
H        5.32232763      21.39978531      64.65004650        0
H        6.13653460      22.48887583      63.51842713        0
H        6.00902371      19.22509580      65.49336818        0
H        5.65625256      17.66240770      65.04057048        0
